 C O F K Ca
   1.0
     5.0841812300000004    0.0000000000000000    0.0000000000000000
    -2.5420906099999998    4.4030301100000004    0.0000000000000000
     0.0000000000000000    0.0000000000000000    4.4502724499999999
 C O F K Ca
   1   3   1   1   1
Direct
   0.6666666700000000  0.3333333300000000  0.5000000000000000
   0.8134992200000000  0.6269984500000000  0.5000000000000000
   0.3730015500000000  0.1865007800000000  0.5000000000000000
   0.8134992200000000  0.1865007800000000  0.5000000000000000
   0.3333333300000000  0.6666666700000000  0.0000000000000000
   0.0000000000000000  0.0000000000000000  0.0000000000000000
   0.3333333300000000  0.6666666700000000  0.5000000000000000
