generated by phonopy
   1.0
    10.2897771500000008    0.0000000000000000    0.0000000000000000
    -5.1448885899999999    8.9112084100000004    0.0000000000000000
     0.0000000000000000    0.0000000000000000    4.9320839000000003
Mg Re O
   3    6   24
Direct
  0.6666666700000000  0.3333333300000000  0.3617872400000000
  0.0000000000000000  0.0000000000000000  0.8615606000000000
  0.3333333300000000  0.6666666700000000  0.3617872400000000
  0.3257395300000000  0.0000000000000000  0.4893956100000000
  0.6599840800000000  0.0000000000000000  0.0058496200000000
  0.0000000000000000  0.3257395300000000  0.4893956100000000
  0.0000000000000000  0.6599840800000000  0.0058496200000000
  0.3400159200000000  0.3400159200000000  0.0058496200000000
  0.6742604700000000  0.6742604700000000  0.4893956100000000
  0.1680355100000000  0.0000000000000000  0.6233226300000000
  0.3188581500000000  0.0000000000000000  0.1410977700000000
  0.4914753000000000  0.1620721600000000  0.5870092900000000
  0.6506291800000000  0.0000000000000000  0.6576324000000000
  0.6642848600000000  0.1615054800000000  0.1304771800000000
  0.8257740600000000  0.0000000000000000  0.0888035600000000
  0.4972206300000000  0.3357151400000000  0.1304771800000000
  0.8379278400000000  0.3294031500000000  0.5870092900000000
  0.0000000000000000  0.1680355100000000  0.6233226300000000
  0.0000000000000000  0.3188581500000000  0.1410977700000000
  0.6705968500000000  0.5085247000000001  0.5870092900000000
  0.8384945200000000  0.5027793699999999  0.1304771800000000
  0.1742259400000000  0.1742259400000000  0.0888035600000000
  0.1620721600000000  0.4914753000000000  0.5870092900000000
  0.0000000000000000  0.6506291800000000  0.6576324000000000
  0.1615054800000000  0.6642848600000000  0.1304771800000000
  0.0000000000000000  0.8257740600000000  0.0888035600000000
  0.3493708200000000  0.3493708200000000  0.6576324000000000
  0.3357151400000000  0.4972206300000000  0.1304771800000000
  0.3294031500000000  0.8379278400000000  0.5870092900000000
  0.5085247000000001  0.6705968500000000  0.5870092900000000
  0.5027793699999999  0.8384945200000000  0.1304771800000000
  0.6811418500000000  0.6811418500000000  0.1410977700000000
  0.8319644899999999  0.8319644899999999  0.6233226300000000
