 O K Nb
   1.0
     3.9995028399999999    0.0000000000000000    0.0000000000000000
     0.0000000000000000    5.7389730999999999    0.0000000000000000
     0.0000000000000000    0.0000000000000000    5.7596046300000001
 O K Nb
   6   2   2
Direct
   0.0000000000000000  0.7519868199999999  0.7806237200000000
   0.0000000000000000  0.2480131800000000  0.7806237200000000
   0.5000000000000000  0.5000000000000000  0.5332672100000000
   0.0000000000000000  0.2519868200000000  0.2806237200000000
   0.0000000000000000  0.7480131800000001  0.2806237200000000
   0.5000000000000000  0.0000000000000000  0.0332672100000000
   0.5000000000000000  0.5000000000000000  0.0134551300000000
   0.5000000000000000  0.0000000000000000  0.5134551300000000
   0.0000000000000000  0.5000000000000000  0.5000302000000000
   0.0000000000000000  0.0000000000000000  0.0000302000000000
