 Na I O
   1.0
     8.0073124900000003   -0.0000001600000000    0.0000000000000000
     0.0000001600000000    8.0073124900000003    0.0000000000000000
     0.0000000000000000    0.0000000000000000    5.7068504899999999
 Na I O
   2   6  16
Direct
   0.5000000000000000  0.5000000000000000  0.0000000000000000
   0.0000000000000000  0.0000000000000000  0.0000000000000000
   0.0000000000000000  0.5000000000000000  0.0986713800000000
   0.7498109399999999  0.7289955800000000  0.6052817100000000
   0.5000000000000000  0.0000000000000000  0.9013286200000000
   0.7289955800000000  0.2501890600000000  0.3947182900000000
   0.2501890600000000  0.2710044200000000  0.6052817100000000
   0.2710044200000000  0.7498109399999999  0.3947182900000000
   0.2749231300000000  0.4938776700000000  0.6512822899999999
   0.0670786200000000  0.2396182200000000  0.7889277600000000
   0.9488259600000000  0.6722349599999999  0.3035377900000000
   0.7603817800000000  0.0670786200000000  0.2110722400000000
   0.6722349599999999  0.0511740400000000  0.6964622100000000
   0.5061223300000000  0.2749231300000000  0.3487177100000000
   0.7626804800000000  0.4111978400000000  0.1388540600000000
   0.4938776700000000  0.7250768700000000  0.3487177100000000
   0.5888021600000000  0.7626804800000000  0.8611459400000000
   0.4111978400000000  0.2373195200000000  0.8611459400000000
   0.9329213800000000  0.7603817800000000  0.7889277600000000
   0.3277650400000000  0.9488259600000000  0.6964622100000000
   0.2373195200000000  0.5888021600000000  0.1388540600000000
   0.0511740400000000  0.3277650400000000  0.3035377900000000
   0.2396182200000000  0.9329213800000000  0.2110722400000000
   0.7250768700000000  0.5061223300000000  0.6512822899999999
