 Mg Sb Yb
   1.0
     4.6142004900000000    0.0000000000000000    0.0000000000000000
    -2.3071002500000000    3.9960148499999999    0.0000000000000000
     0.0000000000000000    0.0000000000000000    7.3568378200000000
 Mg Sb Yb
   2   2   1
Direct
   0.6666666700000000  0.3333333300000000  0.3670793900000000
   0.3333333300000000  0.6666666700000000  0.6329206100000000
   0.6666666700000000  0.3333333300000000  0.7627597800000000
   0.3333333300000000  0.6666666700000000  0.2372402200000000
   0.0000000000000000  0.0000000000000000  0.0000000000000000
