 Li Nb S
   1.0
     5.9949414599999997    0.0000000000000000    0.0000000000000000
     0.0000000000000000    5.9949414599999997    0.0000000000000000
     0.0000000000000000    0.0000000000000000    5.9949414599999997
 Li Nb S
   3   1   4
Direct
   0.0000000000000000  0.0000000000000000  0.5000000000000000
   0.0000000000000000  0.5000000000000000  0.0000000000000000
   0.5000000000000000  0.0000000000000000  0.0000000000000000
   0.0000000000000000  0.0000000000000000  0.0000000000000000
   0.2189945600000000  0.2189945600000000  0.2189945600000000
   0.2189945600000000  0.7810054399999999  0.7810054399999999
   0.7810054399999999  0.2189945600000000  0.7810054399999999
   0.7810054399999999  0.7810054399999999  0.2189945600000000