 O S Hf
   1.0
     5.6294504800000000    0.0000000000000000    0.0000000000000000
     0.0000000000000000    5.6294504800000000    0.0000000000000000
     0.0000000000000000    0.0000000000000000    5.6294504800000000
 O S Hf
   4   4   4
Direct
   0.4055263900000000  0.5944736100000000  0.0944736100000000
   0.5944736100000000  0.0944736100000000  0.4055263900000000
   0.9055263900000000  0.9055263900000000  0.9055263900000000
   0.0944736100000000  0.4055263900000000  0.5944736100000000
   0.9172122000000000  0.4172122000000000  0.0827878000000000
   0.0827878000000000  0.9172122000000000  0.4172122000000000
   0.4172122000000000  0.0827878000000000  0.9172122000000000
   0.5827878000000000  0.5827878000000000  0.5827878000000000
   0.6797933199999999  0.8202066800000000  0.1797933200000000
   0.8202066800000000  0.1797933200000000  0.6797933199999999
   0.1797933200000000  0.6797933199999999  0.8202066800000000
   0.3202066800000000  0.3202066800000000  0.3202066800000000
