 Mg B
   1.0
     3.0751691007292523    0.0000000000000000    0.0000000000000000
    -1.5375845503646262    2.6631745621644800    0.0000000000000000
     0.0000000000000000    0.0000000000000000    3.5270080068586522
   1   2
Direct
   0.0000000000000000  0.0000000000000000  0.0000000000000000
   0.3333333333333357  0.6666666666666643  0.5000000000000000
   0.6666666666666643  0.3333333333333357  0.5000000000000000
