units metal

read_data supercell-001

pair_style pace
pair_coeff * * Si_npj_CompMat2021.ace Si

dump phonopy all custom 1 force.* id type x y z fx fy fz
dump_modify phonopy format line "%d %d %15.8f %15.8f %15.8f %15.8f %15.8f %15.8f"
run 0
