lattice_vector 0.0000000000000000 10.8399999999999999 10.8399999999999999 
lattice_vector 10.8399999999999999 0.0000000000000000 10.8399999999999999 
lattice_vector 10.8399999999999999 10.8399999999999999 0.0000000000000000 

atom 0.0000000000000000 0.0070710678118655 0.0070710678118655 Si
atom 0.0000000000000000 2.7100000000000000 2.7100000000000000 Si
atom 0.0000000000000000 5.4199999999999999 5.4199999999999999 Si
atom 0.0000000000000000 8.1299999999999990 8.1299999999999990 Si
atom 2.7100000000000000 0.0000000000000000 2.7100000000000000 Si
atom 2.7100000000000000 2.7100000000000000 5.4199999999999999 Si
atom 2.7100000000000000 5.4199999999999999 8.1299999999999990 Si
atom 2.7100000000000000 8.1299999999999990 10.8399999999999999 Si
atom 5.4199999999999999 0.0000000000000000 5.4199999999999999 Si
atom 5.4199999999999999 2.7100000000000000 8.1299999999999990 Si
atom 5.4199999999999999 5.4199999999999999 10.8399999999999999 Si
atom 5.4199999999999999 8.1299999999999990 13.5499999999999989 Si
atom 8.1299999999999990 0.0000000000000000 8.1299999999999990 Si
atom 8.1299999999999990 2.7100000000000000 10.8399999999999999 Si
atom 8.1299999999999990 5.4199999999999999 13.5499999999999989 Si
atom 8.1299999999999990 8.1299999999999990 16.2599999999999980 Si
atom 2.7100000000000000 2.7100000000000000 0.0000000000000000 Si
atom 2.7100000000000000 5.4199999999999999 2.7100000000000000 Si
atom 2.7100000000000000 8.1299999999999990 5.4199999999999999 Si
atom 2.7100000000000000 10.8399999999999999 8.1299999999999990 Si
atom 5.4199999999999999 2.7100000000000000 2.7100000000000000 Si
atom 5.4199999999999999 5.4199999999999999 5.4199999999999999 Si
atom 5.4199999999999999 8.1299999999999990 8.1299999999999990 Si
atom 5.4199999999999999 10.8399999999999999 10.8399999999999999 Si
atom 8.1299999999999990 2.7100000000000000 5.4199999999999999 Si
atom 8.1299999999999990 5.4199999999999999 8.1299999999999990 Si
atom 8.1299999999999990 8.1299999999999990 10.8399999999999999 Si
atom 8.1299999999999990 10.8399999999999999 13.5499999999999989 Si
atom 10.8399999999999999 2.7100000000000000 8.1299999999999990 Si
atom 10.8399999999999999 5.4199999999999999 10.8399999999999999 Si
atom 10.8399999999999999 8.1299999999999990 13.5499999999999989 Si
atom 10.8399999999999999 10.8399999999999999 16.2599999999999980 Si
atom 5.4199999999999999 5.4199999999999999 0.0000000000000000 Si
atom 5.4199999999999999 8.1299999999999990 2.7100000000000000 Si
atom 5.4199999999999999 10.8399999999999999 5.4199999999999999 Si
atom 5.4199999999999999 13.5499999999999989 8.1299999999999990 Si
atom 8.1299999999999990 5.4199999999999999 2.7100000000000000 Si
atom 8.1299999999999990 8.1299999999999990 5.4199999999999999 Si
atom 8.1299999999999990 10.8399999999999999 8.1299999999999990 Si
atom 8.1299999999999990 13.5499999999999989 10.8399999999999999 Si
atom 10.8399999999999999 5.4199999999999999 5.4199999999999999 Si
atom 10.8399999999999999 8.1299999999999990 8.1299999999999990 Si
atom 10.8399999999999999 10.8399999999999999 10.8399999999999999 Si
atom 10.8399999999999999 13.5499999999999989 13.5499999999999989 Si
atom 13.5499999999999989 5.4199999999999999 8.1299999999999990 Si
atom 13.5499999999999989 8.1299999999999990 10.8399999999999999 Si
atom 13.5499999999999989 10.8399999999999999 13.5499999999999989 Si
atom 13.5499999999999989 13.5499999999999989 16.2599999999999980 Si
atom 8.1299999999999990 8.1299999999999990 0.0000000000000000 Si
atom 8.1299999999999990 10.8399999999999999 2.7100000000000000 Si
atom 8.1299999999999990 13.5499999999999989 5.4199999999999999 Si
atom 8.1299999999999990 16.2599999999999980 8.1299999999999990 Si
atom 10.8399999999999999 8.1299999999999990 2.7100000000000000 Si
atom 10.8399999999999999 10.8399999999999999 5.4199999999999999 Si
atom 10.8399999999999999 13.5499999999999989 8.1299999999999990 Si
atom 10.8399999999999999 16.2599999999999980 10.8399999999999999 Si
atom 13.5499999999999989 8.1299999999999990 5.4199999999999999 Si
atom 13.5499999999999989 10.8399999999999999 8.1299999999999990 Si
atom 13.5499999999999989 13.5499999999999989 10.8399999999999999 Si
atom 13.5499999999999989 16.2599999999999980 13.5499999999999989 Si
atom 16.2599999999999980 8.1299999999999990 8.1299999999999990 Si
atom 16.2599999999999980 10.8399999999999999 10.8399999999999999 Si
atom 16.2599999999999980 13.5499999999999989 13.5499999999999989 Si
atom 16.2599999999999980 16.2599999999999980 16.2599999999999980 Si
atom 1.3550000000000000 1.3550000000000000 1.3550000000000000 Si
atom 1.3550000000000000 4.0650000000000004 4.0650000000000004 Si
atom 1.3550000000000000 6.7750000000000004 6.7750000000000004 Si
atom 1.3550000000000000 9.4849999999999994 9.4849999999999994 Si
atom 4.0650000000000004 1.3550000000000000 4.0650000000000004 Si
atom 4.0650000000000004 4.0650000000000004 6.7750000000000004 Si
atom 4.0650000000000004 6.7750000000000004 9.4849999999999994 Si
atom 4.0650000000000004 9.4849999999999994 12.1950000000000003 Si
atom 6.7750000000000004 1.3550000000000000 6.7750000000000004 Si
atom 6.7750000000000004 4.0650000000000004 9.4849999999999994 Si
atom 6.7750000000000004 6.7750000000000004 12.1950000000000003 Si
atom 6.7750000000000004 9.4849999999999994 14.9049999999999994 Si
atom 9.4849999999999994 1.3550000000000000 9.4849999999999994 Si
atom 9.4849999999999994 4.0650000000000004 12.1950000000000003 Si
atom 9.4849999999999994 6.7750000000000004 14.9049999999999994 Si
atom 9.4849999999999994 9.4849999999999994 17.6149999999999984 Si
atom 4.0650000000000004 4.0650000000000004 1.3550000000000000 Si
atom 4.0650000000000004 6.7750000000000004 4.0650000000000004 Si
atom 4.0650000000000004 9.4849999999999994 6.7750000000000004 Si
atom 4.0650000000000004 12.1950000000000003 9.4849999999999994 Si
atom 6.7750000000000004 4.0650000000000004 4.0650000000000004 Si
atom 6.7750000000000004 6.7750000000000004 6.7750000000000004 Si
atom 6.7750000000000004 9.4849999999999994 9.4849999999999994 Si
atom 6.7750000000000004 12.1950000000000003 12.1950000000000003 Si
atom 9.4849999999999994 4.0650000000000004 6.7750000000000004 Si
atom 9.4849999999999994 6.7750000000000004 9.4849999999999994 Si
atom 9.4849999999999994 9.4849999999999994 12.1950000000000003 Si
atom 9.4849999999999994 12.1950000000000003 14.9049999999999994 Si
atom 12.1950000000000003 4.0650000000000004 9.4849999999999994 Si
atom 12.1950000000000003 6.7750000000000004 12.1950000000000003 Si
atom 12.1950000000000003 9.4849999999999994 14.9049999999999994 Si
atom 12.1950000000000003 12.1950000000000003 17.6149999999999984 Si
atom 6.7750000000000004 6.7750000000000004 1.3550000000000000 Si
atom 6.7750000000000004 9.4849999999999994 4.0650000000000004 Si
atom 6.7750000000000004 12.1950000000000003 6.7750000000000004 Si
atom 6.7750000000000004 14.9049999999999994 9.4849999999999994 Si
atom 9.4849999999999994 6.7750000000000004 4.0650000000000004 Si
atom 9.4849999999999994 9.4849999999999994 6.7750000000000004 Si
atom 9.4849999999999994 12.1950000000000003 9.4849999999999994 Si
atom 9.4849999999999994 14.9049999999999994 12.1950000000000003 Si
atom 12.1950000000000003 6.7750000000000004 6.7750000000000004 Si
atom 12.1950000000000003 9.4849999999999994 9.4849999999999994 Si
atom 12.1950000000000003 12.1950000000000003 12.1950000000000003 Si
atom 12.1950000000000003 14.9049999999999994 14.9049999999999994 Si
atom 14.9049999999999994 6.7750000000000004 9.4849999999999994 Si
atom 14.9049999999999994 9.4849999999999994 12.1950000000000003 Si
atom 14.9049999999999994 12.1950000000000003 14.9049999999999994 Si
atom 14.9049999999999994 14.9049999999999994 17.6149999999999984 Si
atom 9.4849999999999994 9.4849999999999994 1.3550000000000000 Si
atom 9.4849999999999994 12.1950000000000003 4.0650000000000004 Si
atom 9.4849999999999994 14.9049999999999994 6.7750000000000004 Si
atom 9.4849999999999994 17.6149999999999984 9.4849999999999994 Si
atom 12.1950000000000003 9.4849999999999994 4.0650000000000004 Si
atom 12.1950000000000003 12.1950000000000003 6.7750000000000004 Si
atom 12.1950000000000003 14.9049999999999994 9.4849999999999994 Si
atom 12.1950000000000003 17.6149999999999984 12.1950000000000003 Si
atom 14.9049999999999994 9.4849999999999994 6.7750000000000004 Si
atom 14.9049999999999994 12.1950000000000003 9.4849999999999994 Si
atom 14.9049999999999994 14.9049999999999994 12.1950000000000003 Si
atom 14.9049999999999994 17.6149999999999984 14.9049999999999994 Si
atom 17.6149999999999984 9.4849999999999994 9.4849999999999994 Si
atom 17.6149999999999984 12.1950000000000003 12.1950000000000003 Si
atom 17.6149999999999984 14.9049999999999994 14.9049999999999994 Si
atom 17.6149999999999984 17.6149999999999984 17.6149999999999984 Si
