#=======================================================
# FHI-aims file: geometry.in
# Created using the Atomic Simulation Environment (ASE)
# Tue Jan 28 14:12:55 2020
#=======================================================
lattice_vector 3.5617721250000001 0.0000000000000000 0.0000000000000000
lattice_vector 0.0000000000000000 3.5617721250000001 0.0000000000000000
lattice_vector 0.0000000000000000 0.0000000000000000 3.5617721250000001
atom_frac 0.0000000000000000 0.0000000000000000 0.0000000000000000 C
atom_frac 0.2500000000000000 0.2500000000000000 0.2500000000000000 C
atom_frac 0.5000000000000000 0.5000000000000000 0.0000000000000000 C
atom_frac 0.7499999999999999 0.7499999999999999 0.2500000000000000 C
atom_frac 0.5000000000000000 0.0000000000000000 0.5000000000000000 C
atom_frac 0.7499999999999999 0.2500000000000000 0.7499999999999999 C
atom_frac 0.0000000000000000 0.5000000000000000 0.5000000000000000 C
atom_frac 0.2500000000000000 0.7499999999999999 0.7499999999999999 C
