 &input
   fildyn='NaCl.dyn', zasr='simple', flfrc='NaCl.fc'
 /
