 &control
    calculation = 'scf'
    tprnfor = .true.
    tstress = .true.
    pseudo_dir = '/home/togo/espresso/pseudo/'
    disk_io = 'none'
 /
 &system
    ibrav = 0
    nat = 64
    ntyp = 2
    ecutwfc = 70.0
 /
 &electrons
    diagonalization = 'david'
    conv_thr = 1.0d-9
 /
K_POINTS automatic
 2 2 2  1 1 1
!    ibrav = 0, nat = 64, ntyp = 2
CELL_PARAMETERS bohr
   21.5062228544432017    0.0000000000000000    0.0000000000000000
    0.0000000000000000   21.5062228544432017    0.0000000000000000
    0.0000000000000000    0.0000000000000000   21.5062228544432017
ATOMIC_SPECIES
 Na   22.98977   Na.pbe-spn-kjpaw_psl.0.2.UPF
 Cl   35.45300   Cl.pbe-n-kjpaw_psl.0.1.UPF
ATOMIC_POSITIONS crystal
 Na   0.0009299633941005  0.0000000000000000  0.0000000000000000
 Na   0.5000000000000000  0.0000000000000000  0.0000000000000000
 Na   0.0000000000000000  0.5000000000000000  0.0000000000000000
 Na   0.5000000000000000  0.5000000000000000  0.0000000000000000
 Na   0.0000000000000000  0.0000000000000000  0.5000000000000000
 Na   0.5000000000000000  0.0000000000000000  0.5000000000000000
 Na   0.0000000000000000  0.5000000000000000  0.5000000000000000
 Na   0.5000000000000000  0.5000000000000000  0.5000000000000000
 Na   0.0000000000000000  0.2500000000000000  0.2500000000000000
 Na   0.5000000000000000  0.2500000000000000  0.2500000000000000
 Na   0.0000000000000000  0.7500000000000001  0.2500000000000000
 Na   0.5000000000000000  0.7500000000000001  0.2500000000000000
 Na   0.0000000000000000  0.2500000000000000  0.7500000000000001
 Na   0.5000000000000000  0.2500000000000000  0.7500000000000001
 Na   0.0000000000000000  0.7500000000000001  0.7500000000000001
 Na   0.5000000000000000  0.7500000000000001  0.7500000000000001
 Na   0.2500000000000000  0.0000000000000000  0.2500000000000000
 Na   0.7500000000000001  0.0000000000000000  0.2500000000000000
 Na   0.2500000000000000  0.5000000000000000  0.2500000000000000
 Na   0.7500000000000001  0.5000000000000000  0.2500000000000000
 Na   0.2500000000000000  0.0000000000000000  0.7500000000000001
 Na   0.7500000000000001  0.0000000000000000  0.7500000000000001
 Na   0.2500000000000000  0.5000000000000000  0.7500000000000001
 Na   0.7500000000000001  0.5000000000000000  0.7500000000000001
 Na   0.2500000000000000  0.2500000000000000  0.0000000000000000
 Na   0.7500000000000001  0.2500000000000000  0.0000000000000000
 Na   0.2500000000000000  0.7500000000000001  0.0000000000000000
 Na   0.7500000000000001  0.7500000000000001  0.0000000000000000
 Na   0.2500000000000000  0.2500000000000000  0.5000000000000000
 Na   0.7500000000000001  0.2500000000000000  0.5000000000000000
 Na   0.2500000000000000  0.7500000000000001  0.5000000000000000
 Na   0.7500000000000001  0.7500000000000001  0.5000000000000000
 Cl   0.2500000000000000  0.2500000000000000  0.2500000000000000
 Cl   0.7500000000000001  0.2500000000000000  0.2500000000000000
 Cl   0.2500000000000000  0.7500000000000001  0.2500000000000000
 Cl   0.7500000000000001  0.7500000000000001  0.2500000000000000
 Cl   0.2500000000000000  0.2500000000000000  0.7500000000000001
 Cl   0.7500000000000001  0.2500000000000000  0.7500000000000001
 Cl   0.2500000000000000  0.7500000000000001  0.7500000000000001
 Cl   0.7500000000000001  0.7500000000000001  0.7500000000000001
 Cl   0.2500000000000000  0.0000000000000000  0.0000000000000000
 Cl   0.7500000000000001  0.0000000000000000  0.0000000000000000
 Cl   0.2500000000000000  0.5000000000000000  0.0000000000000000
 Cl   0.7500000000000001  0.5000000000000000  0.0000000000000000
 Cl   0.2500000000000000  0.0000000000000000  0.5000000000000000
 Cl   0.7500000000000001  0.0000000000000000  0.5000000000000000
 Cl   0.2500000000000000  0.5000000000000000  0.5000000000000000
 Cl   0.7500000000000001  0.5000000000000000  0.5000000000000000
 Cl   0.0000000000000000  0.2500000000000000  0.0000000000000000
 Cl   0.5000000000000000  0.2500000000000000  0.0000000000000000
 Cl   0.0000000000000000  0.7500000000000001  0.0000000000000000
 Cl   0.5000000000000000  0.7500000000000001  0.0000000000000000
 Cl   0.0000000000000000  0.2500000000000000  0.5000000000000000
 Cl   0.5000000000000000  0.2500000000000000  0.5000000000000000
 Cl   0.0000000000000000  0.7500000000000001  0.5000000000000000
 Cl   0.5000000000000000  0.7500000000000001  0.5000000000000000
 Cl   0.0000000000000000  0.0000000000000000  0.2500000000000000
 Cl   0.5000000000000000  0.0000000000000000  0.2500000000000000
 Cl   0.0000000000000000  0.5000000000000000  0.2500000000000000
 Cl   0.5000000000000000  0.5000000000000000  0.2500000000000000
 Cl   0.0000000000000000  0.0000000000000000  0.7500000000000001
 Cl   0.5000000000000000  0.0000000000000000  0.7500000000000001
 Cl   0.0000000000000000  0.5000000000000000  0.7500000000000001
 Cl   0.5000000000000000  0.5000000000000000  0.7500000000000001
