Al O                                    
   1.00000000000000     
     4.8076344022756095    0.0000000000000000    0.0000000000000000
    -2.4038172011378047    4.1635335244786962    0.0000000000000000
     0.0000000000000000    0.0000000000000000   13.1172699198127543
  12  18
Direct
  0.0000000000000000  0.0000000000000000  0.3521850942289043
  0.6666666666666643  0.3333333333333357  0.6855184275622400
  0.3333333333333357  0.6666666666666643  0.0188517608955686
  0.0000000000000000  0.0000000000000000  0.6478149057711028
  0.6666666666666643  0.3333333333333357  0.9811482391044314
  0.3333333333333357  0.6666666666666643  0.3144815724377600
  0.0000000000000000  0.0000000000000000  0.1478149057710957
  0.6666666666666643  0.3333333333333357  0.4811482391044314
  0.3333333333333357  0.6666666666666643  0.8144815724377600
  0.0000000000000000  0.0000000000000000  0.8521850942288972
  0.6666666666666643  0.3333333333333357  0.1855184275622400
  0.3333333333333357  0.6666666666666643  0.5188517608955686
  0.3061673906454899  0.0000000000000000  0.2500000000000000
  0.9728340573121541  0.3333333333333357  0.5833333333333357
  0.6395007239788255  0.6666666666666643  0.9166666666666643
  0.6938326093545102  0.0000000000000000  0.7500000000000000
  0.3604992760211744  0.3333333333333357  0.0833333333333357
  0.0271659426878458  0.6666666666666643  0.4166666666666643
  0.0000000000000000  0.3061673906454899  0.2500000000000000
  0.6666666666666643  0.6395007239788255  0.5833333333333357
  0.3333333333333357  0.9728340573121541  0.9166666666666643
  0.0000000000000000  0.6938326093545102  0.7500000000000000
  0.6666666666666643  0.0271659426878458  0.0833333333333357
  0.3333333333333357  0.3604992760211744  0.4166666666666643
  0.6938326093545102  0.6938326093545102  0.2500000000000000
  0.3604992760211744  0.0271659426878458  0.5833333333333357
  0.0271659426878458  0.3604992760211744  0.9166666666666643
  0.3061673906454899  0.3061673906454899  0.7500000000000000
  0.9728340573121541  0.6395007239788255  0.0833333333333357
  0.6395007239788255  0.9728340573121541  0.4166666666666643
 
  0.00000000E+00  0.00000000E+00  0.00000000E+00
  0.00000000E+00  0.00000000E+00  0.00000000E+00
  0.00000000E+00  0.00000000E+00  0.00000000E+00
  0.00000000E+00  0.00000000E+00  0.00000000E+00
  0.00000000E+00  0.00000000E+00  0.00000000E+00
  0.00000000E+00  0.00000000E+00  0.00000000E+00
  0.00000000E+00  0.00000000E+00  0.00000000E+00
  0.00000000E+00  0.00000000E+00  0.00000000E+00
  0.00000000E+00  0.00000000E+00  0.00000000E+00
  0.00000000E+00  0.00000000E+00  0.00000000E+00
  0.00000000E+00  0.00000000E+00  0.00000000E+00
  0.00000000E+00  0.00000000E+00  0.00000000E+00
  0.00000000E+00  0.00000000E+00  0.00000000E+00
  0.00000000E+00  0.00000000E+00  0.00000000E+00
  0.00000000E+00  0.00000000E+00  0.00000000E+00
  0.00000000E+00  0.00000000E+00  0.00000000E+00
  0.00000000E+00  0.00000000E+00  0.00000000E+00
  0.00000000E+00  0.00000000E+00  0.00000000E+00
  0.00000000E+00  0.00000000E+00  0.00000000E+00
  0.00000000E+00  0.00000000E+00  0.00000000E+00
  0.00000000E+00  0.00000000E+00  0.00000000E+00
  0.00000000E+00  0.00000000E+00  0.00000000E+00
  0.00000000E+00  0.00000000E+00  0.00000000E+00
  0.00000000E+00  0.00000000E+00  0.00000000E+00
  0.00000000E+00  0.00000000E+00  0.00000000E+00
  0.00000000E+00  0.00000000E+00  0.00000000E+00
  0.00000000E+00  0.00000000E+00  0.00000000E+00
  0.00000000E+00  0.00000000E+00  0.00000000E+00
  0.00000000E+00  0.00000000E+00  0.00000000E+00
  0.00000000E+00  0.00000000E+00  0.00000000E+00
