generated by phonopy
   1.00000000000000
     4.7742263452989944    0.0000000000000000   -0.0000000000000000
    -2.3871131726494972    4.1346012984458653    0.0000000000000000
    -0.0000000000000000    0.0000000000000000   13.0113593913272219
   Al   O
    12    18
Direct
  0.3333333333333357  0.6666666666666643  0.0187603745624614
  0.3333333333333357  0.6666666666666643  0.3145729587708743
  0.0000000000000000  0.0000000000000000  0.1479062921042101
  0.6666666666666643  0.3333333333333357  0.1854270412291256
  0.0000000000000000  0.0000000000000000  0.3520937078957900
  0.0000000000000000  0.0000000000000000  0.6479062921042100
  0.6666666666666643  0.3333333333333357  0.4812396254375386
  0.3333333333333357  0.6666666666666643  0.5187603745624614
  0.6666666666666643  0.3333333333333357  0.6854270412291257
  0.6666666666666643  0.3333333333333357  0.9812396254375386
  0.3333333333333357  0.6666666666666643  0.8145729587708743
  0.0000000000000000  0.0000000000000000  0.8520937078957900
  0.3058086537880128  0.0000000000000000  0.2500000000000000
  0.3608580128786515  0.3333333333333357  0.0833333333333357
  0.0000000000000000  0.3058086537880128  0.2500000000000000
  0.6666666666666643  0.0275246795453229  0.0833333333333357
  0.6941913462119872  0.6941913462119872  0.2500000000000000
  0.9724753204546771  0.6391419871213485  0.0833333333333357
  0.9724753204546771  0.3333333333333357  0.5833333333333357
  0.0275246795453229  0.6666666666666643  0.4166666666666643
  0.6666666666666643  0.6391419871213485  0.5833333333333357
  0.3333333333333357  0.3608580128786515  0.4166666666666643
  0.3608580128786515  0.0275246795453229  0.5833333333333357
  0.6391419871213485  0.9724753204546771  0.4166666666666643
  0.6391419871213485  0.6666666666666643  0.9166666666666643
  0.6941913462119872  0.0000000000000000  0.7500000000000000
  0.3333333333333357  0.9724753204546771  0.9166666666666643
 -0.0000000000000000  0.6941913462119872  0.7500000000000000
  0.0275246795453229  0.3608580128786515  0.9166666666666643
  0.3058086537880128  0.3058086537880128  0.7500000000000000

  0.00000000E+00  0.00000000E+00  0.00000000E+00
  0.00000000E+00  0.00000000E+00  0.00000000E+00
  0.00000000E+00  0.00000000E+00  0.00000000E+00
  0.00000000E+00  0.00000000E+00  0.00000000E+00
  0.00000000E+00  0.00000000E+00  0.00000000E+00
  0.00000000E+00  0.00000000E+00  0.00000000E+00
  0.00000000E+00  0.00000000E+00  0.00000000E+00
  0.00000000E+00  0.00000000E+00  0.00000000E+00
  0.00000000E+00  0.00000000E+00  0.00000000E+00
  0.00000000E+00  0.00000000E+00  0.00000000E+00
  0.00000000E+00  0.00000000E+00  0.00000000E+00
  0.00000000E+00  0.00000000E+00  0.00000000E+00
  0.00000000E+00  0.00000000E+00  0.00000000E+00
  0.00000000E+00  0.00000000E+00  0.00000000E+00
  0.00000000E+00  0.00000000E+00  0.00000000E+00
  0.00000000E+00  0.00000000E+00  0.00000000E+00
  0.00000000E+00  0.00000000E+00  0.00000000E+00
  0.00000000E+00  0.00000000E+00  0.00000000E+00
  0.00000000E+00  0.00000000E+00  0.00000000E+00
  0.00000000E+00  0.00000000E+00  0.00000000E+00
  0.00000000E+00  0.00000000E+00  0.00000000E+00
  0.00000000E+00  0.00000000E+00  0.00000000E+00
  0.00000000E+00  0.00000000E+00  0.00000000E+00
  0.00000000E+00  0.00000000E+00  0.00000000E+00
  0.00000000E+00  0.00000000E+00  0.00000000E+00
  0.00000000E+00  0.00000000E+00  0.00000000E+00
  0.00000000E+00  0.00000000E+00  0.00000000E+00
  0.00000000E+00  0.00000000E+00  0.00000000E+00
  0.00000000E+00  0.00000000E+00  0.00000000E+00
  0.00000000E+00  0.00000000E+00  0.00000000E+00
