# CELL file written 13:29:38 (GMT+3.0) 25th June 2020 from run opt

%BLOCK lattice_cart
   ANG
       3.20276584921909        0.00000000000000        0.00000000000000
       0.00000000000000        3.20276584686211        0.00000000000000
       0.00000000000000        0.00000000000000        3.20276584686211
%ENDBLOCK lattice_cart

%BLOCK cell_constraints
      1   2   2
      0   0   0
%ENDBLOCK cell_constraints

%BLOCK positions_frac
   Cr             0.000000000000000      -0.000000000000000       0.000000000000000 SPIN= 5.000
   Cr             0.500000000000000       0.500000000000000       0.500000000000000 SPIN=-5.000
%ENDBLOCK positions_frac

FIX_ALL_IONS : true

FIX_COM : true

%BLOCK hubbard_u
   EV
   Cr      d:4.000000
%ENDBLOCK hubbard_u

QUANTISATION_AXIS :     1.000000    0.000000    0.000000

%BLOCK species_pot
   Cr      ../Cr.upf
%ENDBLOCK species_pot

SYMMETRY_TOL :     0.001000

%BLOCK symmetry_ops
# Symm. op. 1       E
          1.000000000000000       0.000000000000000       0.000000000000000
          0.000000000000000       1.000000000000000       0.000000000000000
          0.000000000000000       0.000000000000000       1.000000000000000
          0.000000000000000       0.000000000000000       0.000000000000000
# Symm. op. 2       I
         -1.000000000000000       0.000000000000000       0.000000000000000
          0.000000000000000      -1.000000000000000       0.000000000000000
          0.000000000000000       0.000000000000000      -1.000000000000000
          0.000000000000000      -0.000000000000000       0.000000000000000
# Symm. op. 3       4
          1.000000000000000       0.000000000000000       0.000000000000000
          0.000000000000000       0.000000000000000       1.000000000000000
          0.000000000000000      -1.000000000000000       0.000000000000000
          0.000000000000000       0.000000000000000       0.000000000000000
# Symm. op. 4      -4
         -1.000000000000000       0.000000000000000       0.000000000000000
          0.000000000000000       0.000000000000000      -1.000000000000000
          0.000000000000000       1.000000000000000       0.000000000000000
          0.000000000000000       1.000000000000000       0.000000000000000
# Symm. op. 5       m
         -1.000000000000000       0.000000000000000       0.000000000000000
          0.000000000000000       1.000000000000000       0.000000000000000
          0.000000000000000       0.000000000000000       1.000000000000000
          0.000000000000000       0.000000000000000       0.000000000000000
# Symm. op. 6      -4
         -1.000000000000000       0.000000000000000       0.000000000000000
          0.000000000000000       0.000000000000000       1.000000000000000
          0.000000000000000      -1.000000000000000       0.000000000000000
          0.000000000000000       0.000000000000000       0.000000000000000
# Symm. op. 7       2
         -1.000000000000000       0.000000000000000       0.000000000000000
          0.000000000000000      -1.000000000000000       0.000000000000000
          0.000000000000000       0.000000000000000       1.000000000000000
          0.000000000000000      -0.000000000000000       0.000000000000000
# Symm. op. 8       2
         -1.000000000000000       0.000000000000000       0.000000000000000
          0.000000000000000       0.000000000000000       1.000000000000000
          0.000000000000000       1.000000000000000       0.000000000000000
          0.000000000000000      -0.000000000000000       0.000000000000000
# Symm. op. 9       2
         -1.000000000000000       0.000000000000000       0.000000000000000
          0.000000000000000       1.000000000000000       0.000000000000000
          0.000000000000000       0.000000000000000      -1.000000000000000
          0.000000000000000       1.000000000000000       0.000000000000000
# Symm. op. 10      m
          1.000000000000000       0.000000000000000       0.000000000000000
          0.000000000000000      -1.000000000000000       0.000000000000000
          0.000000000000000       0.000000000000000       1.000000000000000
          0.000000000000000      -0.000000000000000       0.000000000000000
# Symm. op. 11      2
         -1.000000000000000       0.000000000000000       0.000000000000000
          0.000000000000000       0.000000000000000      -1.000000000000000
          0.000000000000000      -1.000000000000000       0.000000000000000
          0.000000000000000       0.000000000000000       0.000000000000000
# Symm. op. 12      m
          1.000000000000000       0.000000000000000       0.000000000000000
          0.000000000000000       0.000000000000000       1.000000000000000
          0.000000000000000       1.000000000000000       0.000000000000000
          0.000000000000000      -0.000000000000000       0.000000000000000
# Symm. op. 13      2
          1.000000000000000       0.000000000000000       0.000000000000000
          0.000000000000000      -1.000000000000000       0.000000000000000
          0.000000000000000       0.000000000000000      -1.000000000000000
          0.000000000000000      -0.000000000000000       0.000000000000000
# Symm. op. 14      4
          1.000000000000000       0.000000000000000       0.000000000000000
          0.000000000000000       0.000000000000000      -1.000000000000000
          0.000000000000000       1.000000000000000       0.000000000000000
          0.000000000000000       1.000000000000000       0.000000000000000
# Symm. op. 15      m
          1.000000000000000       0.000000000000000       0.000000000000000
          0.000000000000000       1.000000000000000       0.000000000000000
          0.000000000000000       0.000000000000000      -1.000000000000000
          0.000000000000000       1.000000000000000       0.000000000000000
# Symm. op. 16      m
          1.000000000000000       0.000000000000000       0.000000000000000
          0.000000000000000       0.000000000000000      -1.000000000000000
          0.000000000000000      -1.000000000000000       0.000000000000000
          0.000000000000000       0.000000000000000       0.000000000000000
%ENDBLOCK symmetry_ops

kpoint_mp_grid :    8   8   8

kpoint_mp_offset :        0.500000000000000       0.500000000000000       0.500000000000000
