Si
   5.38930000000000     
     0.0000000000000000    0.5071343999939496    0.5071343999939496
     0.5071343999939496    0.0000000000000000    0.5071343999939496
     0.5071343999939496    0.5071343999939496    0.0000000000000000
   2
Direct
  0.8750000000000000  0.8750000000000000  0.8750000000000000
  0.1250000000000000  0.1250000000000000  0.1250000000000000
