lattice_vector 0.0000000000000000 11.3979999999999997 11.3979999999999997 
lattice_vector 11.3979999999999997 0.0000000000000000 11.3979999999999997 
lattice_vector 11.3979999999999997 11.3979999999999997 0.0000000000000000 
atom 0.0000000000000000 0.0070710678118655 0.0070710678118655 Na
atom 0.0000000000000000 2.8494999999999999 2.8494999999999999 Na
atom 0.0000000000000000 5.6989999999999998 5.6989999999999998 Na
atom 0.0000000000000000 8.5485000000000007 8.5485000000000007 Na
atom 2.8494999999999999 0.0000000000000000 2.8494999999999999 Na
atom 2.8494999999999999 2.8494999999999999 5.6989999999999998 Na
atom 2.8494999999999999 5.6989999999999998 8.5485000000000007 Na
atom 2.8494999999999999 8.5485000000000007 11.3979999999999997 Na
atom 5.6989999999999998 0.0000000000000000 5.6989999999999998 Na
atom 5.6989999999999998 2.8494999999999999 8.5485000000000007 Na
atom 5.6989999999999998 5.6989999999999998 11.3979999999999997 Na
atom 5.6989999999999998 8.5485000000000007 14.2475000000000005 Na
atom 8.5485000000000007 0.0000000000000000 8.5485000000000007 Na
atom 8.5485000000000007 2.8494999999999999 11.3979999999999997 Na
atom 8.5485000000000007 5.6989999999999998 14.2475000000000005 Na
atom 8.5485000000000007 8.5485000000000007 17.0970000000000013 Na
atom 2.8494999999999999 2.8494999999999999 0.0000000000000000 Na
atom 2.8494999999999999 5.6989999999999998 2.8494999999999999 Na
atom 2.8494999999999999 8.5485000000000007 5.6989999999999998 Na
atom 2.8494999999999999 11.3979999999999997 8.5485000000000007 Na
atom 5.6989999999999998 2.8494999999999999 2.8494999999999999 Na
atom 5.6989999999999998 5.6989999999999998 5.6989999999999998 Na
atom 5.6989999999999998 8.5485000000000007 8.5485000000000007 Na
atom 5.6989999999999998 11.3979999999999997 11.3979999999999997 Na
atom 8.5485000000000007 2.8494999999999999 5.6989999999999998 Na
atom 8.5485000000000007 5.6989999999999998 8.5485000000000007 Na
atom 8.5485000000000007 8.5485000000000007 11.3979999999999997 Na
atom 8.5485000000000007 11.3979999999999997 14.2475000000000005 Na
atom 11.3979999999999997 2.8494999999999999 8.5485000000000007 Na
atom 11.3979999999999997 5.6989999999999998 11.3979999999999997 Na
atom 11.3979999999999997 8.5485000000000007 14.2475000000000005 Na
atom 11.3979999999999997 11.3979999999999997 17.0970000000000013 Na
atom 5.6989999999999998 5.6989999999999998 0.0000000000000000 Na
atom 5.6989999999999998 8.5485000000000007 2.8494999999999999 Na
atom 5.6989999999999998 11.3979999999999997 5.6989999999999998 Na
atom 5.6989999999999998 14.2475000000000005 8.5485000000000007 Na
atom 8.5485000000000007 5.6989999999999998 2.8494999999999999 Na
atom 8.5485000000000007 8.5485000000000007 5.6989999999999998 Na
atom 8.5485000000000007 11.3979999999999997 8.5485000000000007 Na
atom 8.5485000000000007 14.2475000000000005 11.3979999999999997 Na
atom 11.3979999999999997 5.6989999999999998 5.6989999999999998 Na
atom 11.3979999999999997 8.5485000000000007 8.5485000000000007 Na
atom 11.3979999999999997 11.3979999999999997 11.3979999999999997 Na
atom 11.3979999999999997 14.2475000000000005 14.2475000000000005 Na
atom 14.2475000000000005 5.6989999999999998 8.5485000000000007 Na
atom 14.2475000000000005 8.5485000000000007 11.3979999999999997 Na
atom 14.2475000000000005 11.3979999999999997 14.2475000000000005 Na
atom 14.2475000000000005 14.2475000000000005 17.0970000000000013 Na
atom 8.5485000000000007 8.5485000000000007 0.0000000000000000 Na
atom 8.5485000000000007 11.3979999999999997 2.8494999999999999 Na
atom 8.5485000000000007 14.2475000000000005 5.6989999999999998 Na
atom 8.5485000000000007 17.0970000000000013 8.5485000000000007 Na
atom 11.3979999999999997 8.5485000000000007 2.8494999999999999 Na
atom 11.3979999999999997 11.3979999999999997 5.6989999999999998 Na
atom 11.3979999999999997 14.2475000000000005 8.5485000000000007 Na
atom 11.3979999999999997 17.0970000000000013 11.3979999999999997 Na
atom 14.2475000000000005 8.5485000000000007 5.6989999999999998 Na
atom 14.2475000000000005 11.3979999999999997 8.5485000000000007 Na
atom 14.2475000000000005 14.2475000000000005 11.3979999999999997 Na
atom 14.2475000000000005 17.0970000000000013 14.2475000000000005 Na
atom 17.0970000000000013 8.5485000000000007 8.5485000000000007 Na
atom 17.0970000000000013 11.3979999999999997 11.3979999999999997 Na
atom 17.0970000000000013 14.2475000000000005 14.2475000000000005 Na
atom 17.0970000000000013 17.0970000000000013 17.0970000000000013 Na
atom 2.8494999999999999 2.8494999999999999 2.8494999999999999 Cl
atom 2.8494999999999999 5.6989999999999998 5.6989999999999998 Cl
atom 2.8494999999999999 8.5484999999999989 8.5484999999999989 Cl
atom 2.8494999999999999 11.3979999999999997 11.3979999999999997 Cl
atom 5.6989999999999998 2.8494999999999999 5.6989999999999998 Cl
atom 5.6989999999999998 5.6989999999999998 8.5485000000000007 Cl
atom 5.6989999999999998 8.5484999999999989 11.3979999999999997 Cl
atom 5.6989999999999998 11.3979999999999997 14.2475000000000005 Cl
atom 8.5484999999999989 2.8494999999999999 8.5484999999999989 Cl
atom 8.5484999999999989 5.6989999999999998 11.3979999999999997 Cl
atom 8.5484999999999989 8.5484999999999989 14.2474999999999987 Cl
atom 8.5484999999999989 11.3979999999999997 17.0970000000000013 Cl
atom 11.3979999999999997 2.8494999999999999 11.3979999999999997 Cl
atom 11.3979999999999997 5.6989999999999998 14.2475000000000005 Cl
atom 11.3979999999999997 8.5484999999999989 17.0970000000000013 Cl
atom 11.3979999999999997 11.3979999999999997 19.9465000000000003 Cl
atom 5.6989999999999998 5.6989999999999998 2.8494999999999999 Cl
atom 5.6989999999999998 8.5485000000000007 5.6989999999999998 Cl
atom 5.6989999999999998 11.3979999999999997 8.5484999999999989 Cl
atom 5.6989999999999998 14.2475000000000005 11.3979999999999997 Cl
atom 8.5485000000000007 5.6989999999999998 5.6989999999999998 Cl
atom 8.5485000000000007 8.5485000000000007 8.5485000000000007 Cl
atom 8.5485000000000007 11.3979999999999997 11.3979999999999997 Cl
atom 8.5485000000000007 14.2475000000000005 14.2475000000000005 Cl
atom 11.3979999999999997 5.6989999999999998 8.5484999999999989 Cl
atom 11.3979999999999997 8.5485000000000007 11.3979999999999997 Cl
atom 11.3979999999999997 11.3979999999999997 14.2474999999999987 Cl
atom 11.3979999999999997 14.2475000000000005 17.0970000000000013 Cl
atom 14.2475000000000005 5.6989999999999998 11.3979999999999997 Cl
atom 14.2475000000000005 8.5485000000000007 14.2475000000000005 Cl
atom 14.2475000000000005 11.3979999999999997 17.0970000000000013 Cl
atom 14.2475000000000005 14.2475000000000005 19.9465000000000003 Cl
atom 8.5484999999999989 8.5484999999999989 2.8494999999999999 Cl
atom 8.5484999999999989 11.3979999999999997 5.6989999999999998 Cl
atom 8.5484999999999989 14.2474999999999987 8.5484999999999989 Cl
atom 8.5484999999999989 17.0970000000000013 11.3979999999999997 Cl
atom 11.3979999999999997 8.5484999999999989 5.6989999999999998 Cl
atom 11.3979999999999997 11.3979999999999997 8.5485000000000007 Cl
atom 11.3979999999999997 14.2474999999999987 11.3979999999999997 Cl
atom 11.3979999999999997 17.0970000000000013 14.2475000000000005 Cl
atom 14.2474999999999987 8.5484999999999989 8.5484999999999989 Cl
atom 14.2474999999999987 11.3979999999999997 11.3979999999999997 Cl
atom 14.2474999999999987 14.2474999999999987 14.2474999999999987 Cl
atom 14.2474999999999987 17.0970000000000013 17.0970000000000013 Cl
atom 17.0970000000000013 8.5484999999999989 11.3979999999999997 Cl
atom 17.0970000000000013 11.3979999999999997 14.2475000000000005 Cl
atom 17.0970000000000013 14.2474999999999987 17.0970000000000013 Cl
atom 17.0970000000000013 17.0970000000000013 19.9465000000000003 Cl
atom 11.3979999999999997 11.3979999999999997 2.8494999999999999 Cl
atom 11.3979999999999997 14.2475000000000005 5.6989999999999998 Cl
atom 11.3979999999999997 17.0970000000000013 8.5484999999999989 Cl
atom 11.3979999999999997 19.9465000000000003 11.3979999999999997 Cl
atom 14.2475000000000005 11.3979999999999997 5.6989999999999998 Cl
atom 14.2475000000000005 14.2475000000000005 8.5485000000000007 Cl
atom 14.2475000000000005 17.0970000000000013 11.3979999999999997 Cl
atom 14.2475000000000005 19.9465000000000003 14.2475000000000005 Cl
atom 17.0970000000000013 11.3979999999999997 8.5484999999999989 Cl
atom 17.0970000000000013 14.2475000000000005 11.3979999999999997 Cl
atom 17.0970000000000013 17.0970000000000013 14.2474999999999987 Cl
atom 17.0970000000000013 19.9465000000000003 17.0970000000000013 Cl
atom 19.9465000000000003 11.3979999999999997 11.3979999999999997 Cl
atom 19.9465000000000003 14.2475000000000005 14.2475000000000005 Cl
atom 19.9465000000000003 17.0970000000000013 17.0970000000000013 Cl
atom 19.9465000000000003 19.9465000000000003 19.9465000000000003 Cl
