 Zn O
   1.0
     3.2871687359128612    0.0000000000000000    0.0000000000000000
    -1.6435843679564306    2.8467716318265182    0.0000000000000000
     0.0000000000000000    0.0000000000000000    5.3045771064003047
   2   2
Direct
   0.3333333333333357  0.6666666666666643  0.9996814330926364
   0.6666666666666643  0.3333333333333357  0.4996814330926362
   0.3333333333333357  0.6666666666666643  0.3787615522102606
   0.6666666666666643  0.3333333333333357  0.8787615522102604
