lattice_vector 0.0000000000000000 2.8494999999999999 2.8494999999999999 
lattice_vector 2.8494999999999999 0.0000000000000000 2.8494999999999999 
lattice_vector 2.8494999999999999 2.8494999999999999 0.0000000000000000 
atom 0.0000000000000000 0.0000000000000000 0.0000000000000000 Na
atom 2.8494999999999999 2.8494999999999999 2.8494999999999999 Cl
