 Ca Ti O
   1.0
     3.8853256900000002    0.0000000000000000    0.0000000000000000
     0.0000000000000000    3.8853256900000002    0.0000000000000000
     0.0000000000000000    0.0000000000000000    3.8853256900000002
   1   1   3
Direct
   0.0000000000000000  0.0000000000000000  0.0000000000000000
   0.5000000000000000  0.5000000000000000  0.5000000000000000
   0.0000000000000000  0.5000000000000000  0.5000000000000000
   0.5000000000000000  0.0000000000000000  0.5000000000000000
   0.5000000000000000  0.5000000000000000  0.0000000000000000
