# CELL file written 00:41:34 (GMT+3.0) 25th June 2020 from run opt

%BLOCK lattice_cart
   ANG
       5.55590303034721      -0.230202827763682E-54   0.230202827763682E-54
     -0.230202827763682E-54    5.55590303034721       0.230202827763682E-54
      0.230202827763682E-54   0.230202827763682E-54    5.55590303034721
%ENDBLOCK lattice_cart

%BLOCK cell_constraints
      1   1   1
      0   0   0
%ENDBLOCK cell_constraints

%BLOCK positions_frac
   Na             0.000000000000000       0.000000000000000       0.000000000000000
   Na             0.000000000000000       0.500000000000000       0.500000000000000
   Na             0.500000000000000       0.000000000000000       0.500000000000000
   Na             0.500000000000000       0.500000000000000       0.000000000000000
   Cl             0.500000000000000       0.500000000000000       0.500000000000000
   Cl             0.500000000000000       0.000000000000000       0.000000000000000
   Cl             0.000000000000000       0.500000000000000       0.000000000000000
   Cl             0.000000000000000       0.000000000000000       0.500000000000000
%ENDBLOCK positions_frac

FIX_ALL_IONS : true

FIX_COM : true

%BLOCK species_pot
   Na      ../Na.upf
   Cl      ../Cl.upf
%ENDBLOCK species_pot

SYMMETRY_TOL :     0.001000

%BLOCK symmetry_ops
# Symm. op. 1       E
          1.000000000000000       0.000000000000000       0.000000000000000
          0.000000000000000       1.000000000000000       0.000000000000000
          0.000000000000000       0.000000000000000       1.000000000000000
          0.000000000000000       0.000000000000000       0.000000000000000
# Symm. op. 2       I
         -1.000000000000000       0.000000000000000       0.000000000000000
          0.000000000000000      -1.000000000000000       0.000000000000000
          0.000000000000000       0.000000000000000      -1.000000000000000
          0.000000000000000       0.000000000000000       0.000000000000000
# Symm. op. 3       4
          0.000000000000000       0.000000000000000      -1.000000000000000
          0.000000000000000       1.000000000000000       0.000000000000000
          1.000000000000000       0.000000000000000       0.000000000000000
          0.000000000000000       0.000000000000000       0.000000000000000
# Symm. op. 4      -4
          0.000000000000000       0.000000000000000       1.000000000000000
          0.000000000000000      -1.000000000000000       0.000000000000000
         -1.000000000000000       0.000000000000000       0.000000000000000
          0.000000000000000       0.000000000000000       0.000000000000000
# Symm. op. 5       2
         -1.000000000000000       0.000000000000000       0.000000000000000
          0.000000000000000       1.000000000000000       0.000000000000000
          0.000000000000000       0.000000000000000      -1.000000000000000
          0.000000000000000       0.000000000000000       0.000000000000000
# Symm. op. 6       m
          1.000000000000000       0.000000000000000       0.000000000000000
          0.000000000000000      -1.000000000000000       0.000000000000000
          0.000000000000000       0.000000000000000       1.000000000000000
          0.000000000000000       0.000000000000000       0.000000000000000
# Symm. op. 7       4
          0.000000000000000       0.000000000000000       1.000000000000000
          0.000000000000000       1.000000000000000       0.000000000000000
         -1.000000000000000       0.000000000000000       0.000000000000000
          0.000000000000000       0.000000000000000       0.000000000000000
# Symm. op. 8      -4
          0.000000000000000       0.000000000000000      -1.000000000000000
          0.000000000000000      -1.000000000000000       0.000000000000000
          1.000000000000000       0.000000000000000       0.000000000000000
          0.000000000000000       0.000000000000000       0.000000000000000
# Symm. op. 9       2
          1.000000000000000       0.000000000000000       0.000000000000000
          0.000000000000000      -1.000000000000000       0.000000000000000
          0.000000000000000       0.000000000000000      -1.000000000000000
          0.000000000000000       0.000000000000000       0.000000000000000
# Symm. op. 10      m
         -1.000000000000000       0.000000000000000       0.000000000000000
          0.000000000000000       1.000000000000000       0.000000000000000
          0.000000000000000       0.000000000000000       1.000000000000000
          0.000000000000000       0.000000000000000       0.000000000000000
# Symm. op. 11      2
          0.000000000000000       0.000000000000000       1.000000000000000
          0.000000000000000      -1.000000000000000       0.000000000000000
          1.000000000000000       0.000000000000000       0.000000000000000
          0.000000000000000       0.000000000000000       0.000000000000000
# Symm. op. 12      m
          0.000000000000000       0.000000000000000      -1.000000000000000
          0.000000000000000       1.000000000000000       0.000000000000000
         -1.000000000000000       0.000000000000000       0.000000000000000
          0.000000000000000       0.000000000000000       0.000000000000000
# Symm. op. 13      2
         -1.000000000000000       0.000000000000000       0.000000000000000
          0.000000000000000      -1.000000000000000       0.000000000000000
          0.000000000000000       0.000000000000000       1.000000000000000
          0.000000000000000       0.000000000000000       0.000000000000000
# Symm. op. 14      m
          1.000000000000000       0.000000000000000       0.000000000000000
          0.000000000000000       1.000000000000000       0.000000000000000
          0.000000000000000       0.000000000000000      -1.000000000000000
          0.000000000000000       0.000000000000000       0.000000000000000
# Symm. op. 15      2
          0.000000000000000       0.000000000000000      -1.000000000000000
          0.000000000000000      -1.000000000000000       0.000000000000000
         -1.000000000000000       0.000000000000000       0.000000000000000
          0.000000000000000       0.000000000000000       0.000000000000000
# Symm. op. 16      m
          0.000000000000000       0.000000000000000       1.000000000000000
          0.000000000000000       1.000000000000000       0.000000000000000
          1.000000000000000       0.000000000000000       0.000000000000000
          0.000000000000000       0.000000000000000       0.000000000000000
# Symm. op. 17      3
          0.000000000000000       0.000000000000000      -1.000000000000000
          1.000000000000000       0.000000000000000       0.000000000000000
          0.000000000000000      -1.000000000000000       0.000000000000000
          0.000000000000000       0.000000000000000       0.000000000000000
# Symm. op. 18     -3
          0.000000000000000       0.000000000000000       1.000000000000000
         -1.000000000000000       0.000000000000000       0.000000000000000
          0.000000000000000       1.000000000000000       0.000000000000000
          0.000000000000000       0.000000000000000       0.000000000000000
# Symm. op. 19      2
          0.000000000000000       1.000000000000000       0.000000000000000
          1.000000000000000       0.000000000000000       0.000000000000000
          0.000000000000000       0.000000000000000      -1.000000000000000
          0.000000000000000       0.000000000000000       0.000000000000000
# Symm. op. 20      m
          0.000000000000000      -1.000000000000000       0.000000000000000
         -1.000000000000000       0.000000000000000       0.000000000000000
          0.000000000000000       0.000000000000000       1.000000000000000
          0.000000000000000       0.000000000000000       0.000000000000000
# Symm. op. 21      3
          0.000000000000000       0.000000000000000       1.000000000000000
          1.000000000000000       0.000000000000000       0.000000000000000
          0.000000000000000       1.000000000000000       0.000000000000000
          0.000000000000000       0.000000000000000       0.000000000000000
# Symm. op. 22     -3
          0.000000000000000       0.000000000000000      -1.000000000000000
         -1.000000000000000       0.000000000000000       0.000000000000000
          0.000000000000000      -1.000000000000000       0.000000000000000
          0.000000000000000       0.000000000000000       0.000000000000000
# Symm. op. 23      4
          0.000000000000000      -1.000000000000000       0.000000000000000
          1.000000000000000       0.000000000000000       0.000000000000000
          0.000000000000000       0.000000000000000       1.000000000000000
          0.000000000000000       0.000000000000000       0.000000000000000
# Symm. op. 24     -4
          0.000000000000000       1.000000000000000       0.000000000000000
         -1.000000000000000       0.000000000000000       0.000000000000000
          0.000000000000000       0.000000000000000      -1.000000000000000
          0.000000000000000       0.000000000000000       0.000000000000000
# Symm. op. 25      3
          0.000000000000000       0.000000000000000      -1.000000000000000
         -1.000000000000000       0.000000000000000       0.000000000000000
          0.000000000000000       1.000000000000000       0.000000000000000
          0.000000000000000       0.000000000000000       0.000000000000000
# Symm. op. 26     -3
          0.000000000000000       0.000000000000000       1.000000000000000
          1.000000000000000       0.000000000000000       0.000000000000000
          0.000000000000000      -1.000000000000000       0.000000000000000
          0.000000000000000       0.000000000000000       0.000000000000000
# Symm. op. 27      2
          0.000000000000000      -1.000000000000000       0.000000000000000
         -1.000000000000000       0.000000000000000       0.000000000000000
          0.000000000000000       0.000000000000000      -1.000000000000000
          0.000000000000000       0.000000000000000       0.000000000000000
# Symm. op. 28      m
          0.000000000000000       1.000000000000000       0.000000000000000
          1.000000000000000       0.000000000000000       0.000000000000000
          0.000000000000000       0.000000000000000       1.000000000000000
          0.000000000000000       0.000000000000000       0.000000000000000
# Symm. op. 29      3
          0.000000000000000       0.000000000000000       1.000000000000000
         -1.000000000000000       0.000000000000000       0.000000000000000
          0.000000000000000      -1.000000000000000       0.000000000000000
          0.000000000000000       0.000000000000000       0.000000000000000
# Symm. op. 30     -3
          0.000000000000000       0.000000000000000      -1.000000000000000
          1.000000000000000       0.000000000000000       0.000000000000000
          0.000000000000000       1.000000000000000       0.000000000000000
          0.000000000000000       0.000000000000000       0.000000000000000
# Symm. op. 31      4
          0.000000000000000       1.000000000000000       0.000000000000000
         -1.000000000000000       0.000000000000000       0.000000000000000
          0.000000000000000       0.000000000000000       1.000000000000000
          0.000000000000000       0.000000000000000       0.000000000000000
# Symm. op. 32     -4
          0.000000000000000      -1.000000000000000       0.000000000000000
          1.000000000000000       0.000000000000000       0.000000000000000
          0.000000000000000       0.000000000000000      -1.000000000000000
          0.000000000000000       0.000000000000000       0.000000000000000
# Symm. op. 33      3
          0.000000000000000       1.000000000000000       0.000000000000000
          0.000000000000000       0.000000000000000      -1.000000000000000
         -1.000000000000000       0.000000000000000       0.000000000000000
          0.000000000000000       0.000000000000000       0.000000000000000
# Symm. op. 34     -3
          0.000000000000000      -1.000000000000000       0.000000000000000
          0.000000000000000       0.000000000000000       1.000000000000000
          1.000000000000000       0.000000000000000       0.000000000000000
          0.000000000000000       0.000000000000000       0.000000000000000
# Symm. op. 35      4
          1.000000000000000       0.000000000000000       0.000000000000000
          0.000000000000000       0.000000000000000      -1.000000000000000
          0.000000000000000       1.000000000000000       0.000000000000000
          0.000000000000000       0.000000000000000       0.000000000000000
# Symm. op. 36     -4
         -1.000000000000000       0.000000000000000       0.000000000000000
          0.000000000000000       0.000000000000000       1.000000000000000
          0.000000000000000      -1.000000000000000       0.000000000000000
          0.000000000000000       0.000000000000000       0.000000000000000
# Symm. op. 37      3
          0.000000000000000      -1.000000000000000       0.000000000000000
          0.000000000000000       0.000000000000000      -1.000000000000000
          1.000000000000000       0.000000000000000       0.000000000000000
          0.000000000000000       0.000000000000000       0.000000000000000
# Symm. op. 38     -3
          0.000000000000000       1.000000000000000       0.000000000000000
          0.000000000000000       0.000000000000000       1.000000000000000
         -1.000000000000000       0.000000000000000       0.000000000000000
          0.000000000000000       0.000000000000000       0.000000000000000
# Symm. op. 39      2
         -1.000000000000000       0.000000000000000       0.000000000000000
          0.000000000000000       0.000000000000000      -1.000000000000000
          0.000000000000000      -1.000000000000000       0.000000000000000
          0.000000000000000       0.000000000000000       0.000000000000000
# Symm. op. 40      m
          1.000000000000000       0.000000000000000       0.000000000000000
          0.000000000000000       0.000000000000000       1.000000000000000
          0.000000000000000       1.000000000000000       0.000000000000000
          0.000000000000000       0.000000000000000       0.000000000000000
# Symm. op. 41      3
          0.000000000000000       1.000000000000000       0.000000000000000
          0.000000000000000       0.000000000000000       1.000000000000000
          1.000000000000000       0.000000000000000       0.000000000000000
          0.000000000000000       0.000000000000000       0.000000000000000
# Symm. op. 42     -3
          0.000000000000000      -1.000000000000000       0.000000000000000
          0.000000000000000       0.000000000000000      -1.000000000000000
         -1.000000000000000       0.000000000000000       0.000000000000000
          0.000000000000000       0.000000000000000       0.000000000000000
# Symm. op. 43      2
         -1.000000000000000       0.000000000000000       0.000000000000000
          0.000000000000000       0.000000000000000       1.000000000000000
          0.000000000000000       1.000000000000000       0.000000000000000
          0.000000000000000       0.000000000000000       0.000000000000000
# Symm. op. 44      m
          1.000000000000000       0.000000000000000       0.000000000000000
          0.000000000000000       0.000000000000000      -1.000000000000000
          0.000000000000000      -1.000000000000000       0.000000000000000
          0.000000000000000       0.000000000000000       0.000000000000000
# Symm. op. 45      3
          0.000000000000000      -1.000000000000000       0.000000000000000
          0.000000000000000       0.000000000000000       1.000000000000000
         -1.000000000000000       0.000000000000000       0.000000000000000
          0.000000000000000       0.000000000000000       0.000000000000000
# Symm. op. 46     -3
          0.000000000000000       1.000000000000000       0.000000000000000
          0.000000000000000       0.000000000000000      -1.000000000000000
          1.000000000000000       0.000000000000000       0.000000000000000
          0.000000000000000       0.000000000000000       0.000000000000000
# Symm. op. 47      4
          1.000000000000000       0.000000000000000       0.000000000000000
          0.000000000000000       0.000000000000000       1.000000000000000
          0.000000000000000      -1.000000000000000       0.000000000000000
          0.000000000000000       0.000000000000000       0.000000000000000
# Symm. op. 48     -4
         -1.000000000000000       0.000000000000000       0.000000000000000
          0.000000000000000       0.000000000000000      -1.000000000000000
          0.000000000000000       1.000000000000000       0.000000000000000
          0.000000000000000       0.000000000000000       0.000000000000000
# Symm. op. 49      E
          1.000000000000000       0.000000000000000       0.000000000000000
          0.000000000000000       1.000000000000000       0.000000000000000
          0.000000000000000       0.000000000000000       1.000000000000000
          0.500000000000000       0.500000000000000       0.000000000000000
# Symm. op. 50      I
         -1.000000000000000       0.000000000000000       0.000000000000000
          0.000000000000000      -1.000000000000000       0.000000000000000
          0.000000000000000       0.000000000000000      -1.000000000000000
          0.500000000000000       0.500000000000000       0.000000000000000
# Symm. op. 51    4_1
          0.000000000000000       0.000000000000000      -1.000000000000000
          0.000000000000000       1.000000000000000       0.000000000000000
          1.000000000000000       0.000000000000000       0.000000000000000
          0.500000000000000       0.500000000000000       0.000000000000000
# Symm. op. 52     -4
          0.000000000000000       0.000000000000000       1.000000000000000
          0.000000000000000      -1.000000000000000       0.000000000000000
         -1.000000000000000       0.000000000000000       0.000000000000000
          0.500000000000000       0.500000000000000       0.000000000000000
# Symm. op. 53    2_1
         -1.000000000000000       0.000000000000000       0.000000000000000
          0.000000000000000       1.000000000000000       0.000000000000000
          0.000000000000000       0.000000000000000      -1.000000000000000
          0.500000000000000       0.500000000000000       0.000000000000000
# Symm. op. 54      a
          1.000000000000000       0.000000000000000       0.000000000000000
          0.000000000000000      -1.000000000000000       0.000000000000000
          0.000000000000000       0.000000000000000       1.000000000000000
          0.500000000000000       0.500000000000000       0.000000000000000
# Symm. op. 55    4_1
          0.000000000000000       0.000000000000000       1.000000000000000
          0.000000000000000       1.000000000000000       0.000000000000000
         -1.000000000000000       0.000000000000000       0.000000000000000
          0.500000000000000       0.500000000000000       0.000000000000000
# Symm. op. 56     -4
          0.000000000000000       0.000000000000000      -1.000000000000000
          0.000000000000000      -1.000000000000000       0.000000000000000
          1.000000000000000       0.000000000000000       0.000000000000000
          0.500000000000000       0.500000000000000       0.000000000000000
# Symm. op. 57    2_1
          1.000000000000000       0.000000000000000       0.000000000000000
          0.000000000000000      -1.000000000000000       0.000000000000000
          0.000000000000000       0.000000000000000      -1.000000000000000
          0.500000000000000       0.500000000000000       0.000000000000000
# Symm. op. 58      b
         -1.000000000000000       0.000000000000000       0.000000000000000
          0.000000000000000       1.000000000000000       0.000000000000000
          0.000000000000000       0.000000000000000       1.000000000000000
          0.500000000000000       0.500000000000000       0.000000000000000
# Symm. op. 59    2_1
          0.000000000000000       0.000000000000000       1.000000000000000
          0.000000000000000      -1.000000000000000       0.000000000000000
          1.000000000000000       0.000000000000000       0.000000000000000
          0.500000000000000       0.500000000000000       0.000000000000000
# Symm. op. 60      m
          0.000000000000000       0.000000000000000      -1.000000000000000
          0.000000000000000       1.000000000000000       0.000000000000000
         -1.000000000000000       0.000000000000000       0.000000000000000
          0.500000000000000       0.500000000000000       0.000000000000000
# Symm. op. 61      2
         -1.000000000000000       0.000000000000000       0.000000000000000
          0.000000000000000      -1.000000000000000       0.000000000000000
          0.000000000000000       0.000000000000000       1.000000000000000
          0.500000000000000       0.500000000000000       0.000000000000000
# Symm. op. 62      n
          1.000000000000000       0.000000000000000       0.000000000000000
          0.000000000000000       1.000000000000000       0.000000000000000
          0.000000000000000       0.000000000000000      -1.000000000000000
          0.500000000000000       0.500000000000000       0.000000000000000
# Symm. op. 63    2_1
          0.000000000000000       0.000000000000000      -1.000000000000000
          0.000000000000000      -1.000000000000000       0.000000000000000
         -1.000000000000000       0.000000000000000       0.000000000000000
          0.500000000000000       0.500000000000000       0.000000000000000
# Symm. op. 64      m
          0.000000000000000       0.000000000000000       1.000000000000000
          0.000000000000000       1.000000000000000       0.000000000000000
          1.000000000000000       0.000000000000000       0.000000000000000
          0.500000000000000       0.500000000000000       0.000000000000000
# Symm. op. 65    3_1
          0.000000000000000       0.000000000000000      -1.000000000000000
          1.000000000000000       0.000000000000000       0.000000000000000
          0.000000000000000      -1.000000000000000       0.000000000000000
          0.500000000000000       0.500000000000000       0.000000000000000
# Symm. op. 66     -3
          0.000000000000000       0.000000000000000       1.000000000000000
         -1.000000000000000       0.000000000000000       0.000000000000000
          0.000000000000000       1.000000000000000       0.000000000000000
          0.500000000000000       0.500000000000000       0.000000000000000
# Symm. op. 67    2_1
          0.000000000000000       1.000000000000000       0.000000000000000
          1.000000000000000       0.000000000000000       0.000000000000000
          0.000000000000000       0.000000000000000      -1.000000000000000
          0.500000000000000       0.500000000000000       0.000000000000000
# Symm. op. 68      m
          0.000000000000000      -1.000000000000000       0.000000000000000
         -1.000000000000000       0.000000000000000       0.000000000000000
          0.000000000000000       0.000000000000000       1.000000000000000
          0.500000000000000       0.500000000000000       0.000000000000000
# Symm. op. 69    3_1
          0.000000000000000       0.000000000000000       1.000000000000000
          1.000000000000000       0.000000000000000       0.000000000000000
          0.000000000000000       1.000000000000000       0.000000000000000
          0.500000000000000       0.500000000000000       0.000000000000000
# Symm. op. 70     -3
          0.000000000000000       0.000000000000000      -1.000000000000000
         -1.000000000000000       0.000000000000000       0.000000000000000
          0.000000000000000      -1.000000000000000       0.000000000000000
          0.500000000000000       0.500000000000000       0.000000000000000
# Symm. op. 71      4
          0.000000000000000      -1.000000000000000       0.000000000000000
          1.000000000000000       0.000000000000000       0.000000000000000
          0.000000000000000       0.000000000000000       1.000000000000000
          0.500000000000000       0.500000000000000       0.000000000000000
# Symm. op. 72     -4
          0.000000000000000       1.000000000000000       0.000000000000000
         -1.000000000000000       0.000000000000000       0.000000000000000
          0.000000000000000       0.000000000000000      -1.000000000000000
          0.500000000000000       0.500000000000000       0.000000000000000
# Symm. op. 73      3
          0.000000000000000       0.000000000000000      -1.000000000000000
         -1.000000000000000       0.000000000000000       0.000000000000000
          0.000000000000000       1.000000000000000       0.000000000000000
          0.500000000000000       0.500000000000000       0.000000000000000
# Symm. op. 74     -3
          0.000000000000000       0.000000000000000       1.000000000000000
          1.000000000000000       0.000000000000000       0.000000000000000
          0.000000000000000      -1.000000000000000       0.000000000000000
          0.500000000000000       0.500000000000000       0.000000000000000
# Symm. op. 75      2
          0.000000000000000      -1.000000000000000       0.000000000000000
         -1.000000000000000       0.000000000000000       0.000000000000000
          0.000000000000000       0.000000000000000      -1.000000000000000
          0.500000000000000       0.500000000000000       0.000000000000000
# Symm. op. 76      n
          0.000000000000000       1.000000000000000       0.000000000000000
          1.000000000000000       0.000000000000000       0.000000000000000
          0.000000000000000       0.000000000000000       1.000000000000000
          0.500000000000000       0.500000000000000       0.000000000000000
# Symm. op. 77      3
          0.000000000000000       0.000000000000000       1.000000000000000
         -1.000000000000000       0.000000000000000       0.000000000000000
          0.000000000000000      -1.000000000000000       0.000000000000000
          0.500000000000000       0.500000000000000       0.000000000000000
# Symm. op. 78     -3
          0.000000000000000       0.000000000000000      -1.000000000000000
          1.000000000000000       0.000000000000000       0.000000000000000
          0.000000000000000       1.000000000000000       0.000000000000000
          0.500000000000000       0.500000000000000       0.000000000000000
# Symm. op. 79      4
          0.000000000000000       1.000000000000000       0.000000000000000
         -1.000000000000000       0.000000000000000       0.000000000000000
          0.000000000000000       0.000000000000000       1.000000000000000
          0.500000000000000       0.500000000000000       0.000000000000000
# Symm. op. 80     -4
          0.000000000000000      -1.000000000000000       0.000000000000000
          1.000000000000000       0.000000000000000       0.000000000000000
          0.000000000000000       0.000000000000000      -1.000000000000000
          0.500000000000000       0.500000000000000       0.000000000000000
# Symm. op. 81    3_1
          0.000000000000000       1.000000000000000       0.000000000000000
          0.000000000000000       0.000000000000000      -1.000000000000000
         -1.000000000000000       0.000000000000000       0.000000000000000
          0.500000000000000       0.500000000000000       0.000000000000000
# Symm. op. 82     -3
          0.000000000000000      -1.000000000000000       0.000000000000000
          0.000000000000000       0.000000000000000       1.000000000000000
          1.000000000000000       0.000000000000000       0.000000000000000
          0.500000000000000       0.500000000000000       0.000000000000000
# Symm. op. 83    4_1
          1.000000000000000       0.000000000000000       0.000000000000000
          0.000000000000000       0.000000000000000      -1.000000000000000
          0.000000000000000       1.000000000000000       0.000000000000000
          0.500000000000000       0.500000000000000       0.000000000000000
# Symm. op. 84     -4
         -1.000000000000000       0.000000000000000       0.000000000000000
          0.000000000000000       0.000000000000000       1.000000000000000
          0.000000000000000      -1.000000000000000       0.000000000000000
          0.500000000000000       0.500000000000000       0.000000000000000
# Symm. op. 85      3
          0.000000000000000      -1.000000000000000       0.000000000000000
          0.000000000000000       0.000000000000000      -1.000000000000000
          1.000000000000000       0.000000000000000       0.000000000000000
          0.500000000000000       0.500000000000000       0.000000000000000
# Symm. op. 86     -3
          0.000000000000000       1.000000000000000       0.000000000000000
          0.000000000000000       0.000000000000000       1.000000000000000
         -1.000000000000000       0.000000000000000       0.000000000000000
          0.500000000000000       0.500000000000000       0.000000000000000
# Symm. op. 87    2_1
         -1.000000000000000       0.000000000000000       0.000000000000000
          0.000000000000000       0.000000000000000      -1.000000000000000
          0.000000000000000      -1.000000000000000       0.000000000000000
          0.500000000000000       0.500000000000000       0.000000000000000
# Symm. op. 88      m
          1.000000000000000       0.000000000000000       0.000000000000000
          0.000000000000000       0.000000000000000       1.000000000000000
          0.000000000000000       1.000000000000000       0.000000000000000