 Ti O
   1.0
     3.8263245523456582    0.0000000000000000    0.0000000000000000
     0.0000000000000000    3.8263245523456582    0.0000000000000000
     0.0000000000000000    0.0000000000000000    9.6579494440577296
   4   8
Direct
   0.5000000000000000  0.7500000000000000  0.8750000000000000
   0.5000000000000000  0.2500000000000000  0.1250000000000000
   0.0000000000000000  0.2500000000000000  0.3750000000000000
   0.0000000000000000  0.7500000000000000  0.6250000000000000
   0.0000000000000000  0.2500000000000000  0.1676062853091494
   0.0000000000000000  0.7500000000000000  0.8323937146908578
   0.5000000000000000  0.2500000000000000  0.9176062853091422
   0.5000000000000000  0.7500000000000000  0.0823937146908506
   0.5000000000000000  0.7500000000000000  0.6676062853091422
   0.5000000000000000  0.2500000000000000  0.3323937146908506
   0.0000000000000000  0.7500000000000000  0.4176062853091494
   0.0000000000000000  0.2500000000000000  0.5823937146908578
