lattice_vector 0.0000000000000000 8.1299999999999990 8.1299999999999990 
lattice_vector 8.1299999999999990 0.0000000000000000 8.1299999999999990 
lattice_vector 8.1299999999999990 8.1299999999999990 0.0000000000000000 

atom 0.0000000000000000 0.0070710678118655 0.0070710678118655 Si
atom 0.0000000000000000 2.7099999999999995 2.7099999999999995 Si
atom 0.0000000000000000 5.4199999999999990 5.4199999999999990 Si
atom 2.7099999999999995 0.0000000000000000 2.7099999999999995 Si
atom 2.7099999999999995 2.7099999999999995 5.4199999999999990 Si
atom 2.7099999999999995 5.4199999999999990 8.1299999999999990 Si
atom 5.4199999999999990 0.0000000000000000 5.4199999999999990 Si
atom 5.4199999999999990 2.7099999999999995 8.1299999999999990 Si
atom 5.4199999999999990 5.4199999999999990 10.8399999999999981 Si
atom 2.7099999999999995 2.7099999999999995 0.0000000000000000 Si
atom 2.7099999999999995 5.4199999999999990 2.7099999999999995 Si
atom 2.7099999999999995 8.1299999999999990 5.4199999999999990 Si
atom 5.4199999999999990 2.7099999999999995 2.7099999999999995 Si
atom 5.4199999999999990 5.4199999999999990 5.4199999999999990 Si
atom 5.4199999999999990 8.1299999999999990 8.1299999999999990 Si
atom 8.1299999999999990 2.7099999999999995 5.4199999999999990 Si
atom 8.1299999999999990 5.4199999999999990 8.1299999999999990 Si
atom 8.1299999999999990 8.1299999999999990 10.8399999999999981 Si
atom 5.4199999999999990 5.4199999999999990 0.0000000000000000 Si
atom 5.4199999999999990 8.1299999999999990 2.7099999999999995 Si
atom 5.4199999999999990 10.8399999999999981 5.4199999999999990 Si
atom 8.1299999999999990 5.4199999999999990 2.7099999999999995 Si
atom 8.1299999999999990 8.1299999999999990 5.4199999999999990 Si
atom 8.1299999999999990 10.8399999999999981 8.1299999999999990 Si
atom 10.8399999999999981 5.4199999999999990 5.4199999999999990 Si
atom 10.8399999999999981 8.1299999999999990 8.1299999999999990 Si
atom 10.8399999999999981 10.8399999999999981 10.8399999999999981 Si
atom 1.3549999999999998 1.3549999999999998 1.3549999999999998 Si
atom 1.3549999999999998 4.0649999999999995 4.0649999999999995 Si
atom 1.3549999999999998 6.7749999999999995 6.7749999999999995 Si
atom 4.0649999999999995 1.3549999999999998 4.0649999999999995 Si
atom 4.0649999999999995 4.0649999999999995 6.7749999999999995 Si
atom 4.0649999999999995 6.7749999999999995 9.4849999999999994 Si
atom 6.7749999999999995 1.3549999999999998 6.7749999999999995 Si
atom 6.7749999999999995 4.0649999999999995 9.4849999999999994 Si
atom 6.7749999999999995 6.7749999999999995 12.1949999999999985 Si
atom 4.0649999999999995 4.0649999999999995 1.3549999999999998 Si
atom 4.0649999999999995 6.7749999999999995 4.0649999999999995 Si
atom 4.0649999999999995 9.4849999999999994 6.7749999999999995 Si
atom 6.7749999999999995 4.0649999999999995 4.0649999999999995 Si
atom 6.7749999999999995 6.7749999999999995 6.7749999999999995 Si
atom 6.7749999999999995 9.4849999999999994 9.4849999999999994 Si
atom 9.4849999999999994 4.0649999999999995 6.7749999999999995 Si
atom 9.4849999999999994 6.7749999999999995 9.4849999999999994 Si
atom 9.4849999999999994 9.4849999999999994 12.1949999999999985 Si
atom 6.7749999999999995 6.7749999999999995 1.3549999999999998 Si
atom 6.7749999999999995 9.4849999999999994 4.0649999999999995 Si
atom 6.7749999999999995 12.1949999999999985 6.7749999999999995 Si
atom 9.4849999999999994 6.7749999999999995 4.0649999999999995 Si
atom 9.4849999999999994 9.4849999999999994 6.7749999999999995 Si
atom 9.4849999999999994 12.1949999999999985 9.4849999999999994 Si
atom 12.1949999999999985 6.7749999999999995 6.7749999999999995 Si
atom 12.1949999999999985 9.4849999999999994 9.4849999999999994 Si
atom 12.1949999999999985 12.1949999999999985 12.1949999999999985 Si
