 Ag Te Er
   1.0
     6.8395917600000002    0.0000000000000000    0.0000000000000000
     0.0000000000000000    6.8395917600000002    0.0000000000000000
     0.0000000000000000    0.0000000000000000    4.6573150900000000
 Ag Te Er
   2   4   2
Direct
   0.0000000000000000  0.0000000000000000  0.0000000000000000
   0.5000000000000000  0.5000000000000000  0.0000000000000000
   0.7023531300000000  0.7976468700000000  0.3041104100000000
   0.7976468700000000  0.2976468700000000  0.6958895899999999
   0.2976468700000000  0.2023531300000000  0.3041104100000000
   0.2023531300000000  0.7023531300000000  0.6958895899999999
   0.0000000000000000  0.5000000000000000  0.1769122400000000
   0.5000000000000000  0.0000000000000000  0.8230877599999999