units metal

read_data supercell-001

pair_style  polymlp
pair_coeff * * mlp.lammps dummy

dump phonopy all custom 1 force.* id type x y z fx fy fz
dump_modify phonopy format line "%d %d %15.8f %15.8f %15.8f %15.8f %15.8f %15.8f"
run 0
