lattice_vector 0.0000000000000000 5.6989999999999998 5.6989999999999998 
lattice_vector 5.6989999999999998 0.0000000000000000 5.6989999999999998 
lattice_vector 5.6989999999999998 5.6989999999999998 0.0000000000000000 
atom 0.0000000000000000 0.0000000000000000 0.0000000000000000 Na
atom 0.0000000000000000 2.8494999999999999 2.8494999999999999 Na
atom 2.8494999999999999 0.0000000000000000 2.8494999999999999 Na
atom 2.8494999999999999 2.8494999999999999 5.6989999999999998 Na
atom 2.8494999999999999 2.8494999999999999 0.0000000000000000 Na
atom 2.8494999999999999 5.6989999999999998 2.8494999999999999 Na
atom 5.6989999999999998 2.8494999999999999 2.8494999999999999 Na
atom 5.6989999999999998 5.6989999999999998 5.6989999999999998 Na
atom 2.8494999999999999 2.8565710678118652 2.8565710678118652 Cl
atom 2.8494999999999999 5.6989999999999998 5.6989999999999998 Cl
atom 5.6989999999999998 2.8494999999999999 5.6989999999999998 Cl
atom 5.6989999999999998 5.6989999999999998 8.5485000000000007 Cl
atom 5.6989999999999998 5.6989999999999998 2.8494999999999999 Cl
atom 5.6989999999999998 8.5485000000000007 5.6989999999999998 Cl
atom 8.5485000000000007 5.6989999999999998 5.6989999999999998 Cl
atom 8.5485000000000007 8.5485000000000007 8.5485000000000007 Cl
