lattice_vector 0.0000000000000000 2.7100000000000000 2.7100000000000000 
lattice_vector 2.7100000000000000 0.0000000000000000 2.7100000000000000 
lattice_vector 2.7100000000000000 2.7100000000000000 0.0000000000000000 
atom 0.0000000000000000 0.0000000000000000 0.0000000000000000 Si
atom 1.3550000000000000 1.3550000000000000 1.3550000000000000 Si
