ATOMIC_SPECIES
Al  26.9815385    Al.PD04.PBE.UPF

LATTICE_CONSTANT
1.889726125

LATTICE_VECTORS
4.0443360000      0.0000000000      0.0000000000
0.0000000000      4.0443360000      0.0000000000
0.0000000000      0.0000000000      4.0443360000

ATOMIC_POSITIONS
Direct

Al
0.0000000000
4
0.0000000000 0.0000000000 0.0000000000 1 1 1
0.0000000000 0.5000000000 0.5000000000 1 1 1
0.5000000000 0.0000000000 0.5000000000 1 1 1
0.5000000000 0.5000000000 0.0000000000 1 1 1
