 Cu
   1.0
     3.5536099999999999    0.0000000000000000    0.0000000000000000
     0.0000000000000000    3.5536099999999999    0.0000000000000000
     0.0000000000000000    0.0000000000000000    3.5536099999999999
 Cu
   4
Direct
   0.0000000000000000  0.0000000000000000  0.0000000000000000
   0.0000000000000000  0.5000000000000000  0.5000000000000000
   0.5000000000000000  0.0000000000000000  0.5000000000000000
   0.5000000000000000  0.5000000000000000  0.0000000000000000
