 Cu
   1.0
     3.6683209400000001    0.0000000000000000    0.0000000000000000
     0.0000000000000000    3.6683209400000001    0.0000000000000000
     0.0000000000000000    0.0000000000000000    3.6683209400000001
 Cu
   4
Direct
   0.0000000000000000  0.0000000000000000  0.0000000000000000
   0.0000000000000000  0.5000000000000000  0.5000000000000000
   0.5000000000000000  0.0000000000000000  0.5000000000000000
   0.5000000000000000  0.5000000000000000  0.0000000000000000
