 Cu
   1.0
     3.6904197900000000    0.0000000000000000    0.0000000000000000
     0.0000000000000000    3.6904197900000000    0.0000000000000000
     0.0000000000000000    0.0000000000000000    3.6904197900000000
 Cu
   4
Direct
   0.0000000000000000  0.0000000000000000  0.0000000000000000
   0.0000000000000000  0.5000000000000000  0.5000000000000000
   0.5000000000000000  0.0000000000000000  0.5000000000000000
   0.5000000000000000  0.5000000000000000  0.0000000000000000
