 Cu
   1.0
     3.7338404800000000    0.0000000000000000    0.0000000000000000
     0.0000000000000000    3.7338404800000000    0.0000000000000000
     0.0000000000000000    0.0000000000000000    3.7338404800000000
 Cu
   4
Direct
   0.0000000000000000  0.0000000000000000  0.0000000000000000
   0.0000000000000000  0.5000000000000000  0.5000000000000000
   0.5000000000000000  0.0000000000000000  0.5000000000000000
   0.5000000000000000  0.5000000000000000  0.0000000000000000
