 Cu
   1.0
     3.5055823600000000    0.0000000000000000    0.0000000000000000
     0.0000000000000000    3.5055823600000000    0.0000000000000000
     0.0000000000000000    0.0000000000000000    3.5055823600000000
 Cu
   4
Direct
   0.0000000000000000  0.0000000000000000  0.0000000000000000
   0.0000000000000000  0.5000000000000000  0.5000000000000000
   0.5000000000000000  0.0000000000000000  0.5000000000000000
   0.5000000000000000  0.5000000000000000  0.0000000000000000
