 Cu
   1.0
     3.6233063200000002    0.0000000000000000    0.0000000000000000
     0.0000000000000000    3.6233063200000002    0.0000000000000000
     0.0000000000000000    0.0000000000000000    3.6233063200000002
 Cu
   4
Direct
   0.0000000000000000  0.0000000000000000  0.0000000000000000
   0.0000000000000000  0.5000000000000000  0.5000000000000000
   0.5000000000000000  0.0000000000000000  0.5000000000000000
   0.5000000000000000  0.5000000000000000  0.0000000000000000
