 Na Cl
   1.0
     5.6911907626590175    0.0000000000000000    0.0000000000000000
     0.0000000000000000    5.6911907626590175   -0.0000000000000000
     0.0000000000000000    0.0000000000000000    5.6911907626590175
 Na Cl
   4   4
Direct
   0.0000000000000000  0.0000000000000000  0.0000000000000000
   0.0000000000000000  0.5000000000000000  0.5000000000000000
   0.5000000000000000  0.0000000000000000  0.5000000000000000
   0.5000000000000000  0.5000000000000000  0.0000000000000000
   0.5000000000000000  0.5000000000000000  0.5000000000000000
   0.5000000000000000  0.0000000000000000  0.0000000000000000
   0.0000000000000000  0.5000000000000000  0.0000000000000000
   0.0000000000000000  0.0000000000000000  0.5000000000000000
