 Cr
   1.0
     2.8126969436818903    0.0000000000000000    0.0000000000000000
     0.0000000000000000    2.8126969436818903    0.0000000000000000
     0.0000000000000000    0.0000000000000000    2.8126969436818903
 Cr
   2
Direct
   0.0000000000000000  0.0000000000000000  0.0000000000000000
   0.5000000000000000  0.5000000000000000  0.5000000000000000