Automatic mesh
0
Monkhorst Pack
  3 3 3  
0.5 0.5 0.5

