# NaCl geometry.in for FHI-aims (Cartesian coordinates)
lattice_vector  10.7531114272216008   0.0000000000000000   0.0000000000000000
lattice_vector   0.0000000000000000  10.7531114272216008   0.0000000000000000
lattice_vector   0.0000000000000000   0.0000000000000000  10.7531114272216008
atom   0.0000000000000000   0.0000000000000000   0.0000000000000000  Na
atom   0.0000000000000000   5.3765557136108004   5.3765557136108004  Na
atom   5.3765557136108004   0.0000000000000000   5.3765557136108004  Na
atom   5.3765557136108004   5.3765557136108004   0.0000000000000000  Na
atom   5.3765557136108004   5.3765557136108004   5.3765557136108004  Cl
atom   5.3765557136108004   0.0000000000000000   0.0000000000000000  Cl
atom   0.0000000000000000   5.3765557136108004   0.0000000000000000  Cl
atom   0.0000000000000000   0.0000000000000000   5.3765557136108004  Cl
