 &control
    calculation = 'scf'
    restart_mode='from_scratch',
    tprnfor = .true.
    tstress = .true.
    prefix='NaCl',
    pseudo_dir = '/home/togo/espresso/pseudo/'
    !outdir='/tmp/q888'
 /
 &system
    ibrav = 0
    nat = 2
    ntyp = 2
    ecutwfc = 70.0
 /
 &electrons
    diagonalization = 'david'
    !mixing_beta = 0.7
    conv_thr = 1.0d-12
 /
ATOMIC_SPECIES
 Na  22.98976928 Na.pbe-spn-kjpaw_psl.0.2.UPF
 Cl  35.453      Cl.pbe-n-kjpaw_psl.0.1.UPF
ATOMIC_POSITIONS crystal
 Na   0.0000000000000000  0.0000000000000000  0.0000000000000000
 Cl   0.5000000000000000  0.5000000000000000  0.5000000000000000
CELL_PARAMETERS angstrom
0 2.8451507380878356 2.8451507380878356
2.8451507380878356 0 2.8451507380878356
2.8451507380878356 2.8451507380878356 0
K_POINTS automatic
8 8 8 0 0 0
