generated by phonopy
   1.0
     0.0000000000000000   10.0000000000000000   10.0000000000000000
    10.0000000000000000    0.0000000000000000   10.0000000000000000
    10.0000000000000000   10.0000000000000000    0.0000000000000000
Al
 125
Direct
  0.9992402261234062  0.0024525044625662  0.9984553163343516
  0.2020952196228869  0.0006028679540146  0.9992017586605166
  0.4000434079871493  0.9983568835751705  0.0023839550076655
  0.6000564427093276  0.0008212775202311  0.0015532645116734
  0.7982605020968452  0.0005702068639404  0.9990089884487252
  0.9984761159207216  0.1995100480467324  0.9995220010803099
  0.1993566930563205  0.1998008332346595  0.0024450461094304
  0.3974107420685471  0.2006764711595656  0.0010225504616430
  0.6022268695387100  0.1979978125167401  0.9998282606287672
  0.7992864469005001  0.1987334205659341  0.0025594859184619
  0.9997296208127250  0.4010279408746137  0.9976740054035129
  0.2011307734631282  0.3985500506884367  0.9984910463817515
  0.3982868462849412  0.4014931992842109  0.9987295297752098
  0.5999880943513969  0.3988544850428958  0.9987054988212901
  0.8007315838537878  0.3983261053087255  0.9988557782537788
  0.0000670676198257  0.6013825890409621  0.9975383358597065
  0.2023770625377244  0.5983798675790466  0.0000896551342390
  0.3976809361416280  0.6006533329873783  0.9998821369881721
  0.6008392931532592  0.5994546154521789  0.9978586847014086
  0.8021442233478449  0.5992601697508586  0.9981001395893815
  0.9990405597540077  0.7990681746814263  0.0025922555794316
  0.1993555075710264  0.8016949740650954  0.9978685312103026
  0.4004845824398267  0.7980323362847480  0.0021188050146450
  0.6019601121631241  0.7991552135157446  0.9980598899791115
  0.7986734168896800  0.7996395799641617  0.9991571912751794
  0.9988316793077990  0.9982672003219084  0.2019110937530422
  0.1997922283990668  0.9977705081636888  0.2005058657744291
  0.3980390594926186  0.0021641926654329  0.1994238601100473
  0.6021201124243184  0.9990638536956291  0.1981980860497536
  0.7985401020999708  0.9988140181696756  0.2003325345325268
  0.0022953187405509  0.1998700756520768  0.1980896056654524
  0.1983387561806517  0.1997254011138235  0.2024326945321525
  0.4014489597220485  0.1984261611484215  0.2015483314845640
  0.5989716539184456  0.1992379281812410  0.1991983069567106
  0.8004155978160028  0.1987618084109994  0.2022762137461170
  0.9995545756179780  0.4005071708570715  0.1979024303009639
  0.1979610843608943  0.3991654985856095  0.2015320175618102
  0.4015587433937483  0.3978871153405652  0.1992890166927158
  0.6023216026266008  0.3994648536360625  0.1981772379467158
  0.7975961521725977  0.4004177292263680  0.2002600230232962
  0.9998533723832065  0.6023565314743170  0.1995962692285057
  0.1978375063988119  0.5994391042370729  0.2009740140443781
  0.4001050481502009  0.6018795204994439  0.1976872780174798
  0.6022870606868985  0.6002566167130700  0.1992120796399574
  0.7996712236401715  0.5977738029005073  0.2006978282567176
  0.9990963062164251  0.7990330805367895  0.1992771740385752
  0.2024969176182435  0.7989906099183907  0.1998219945655726
  0.3987232101397072  0.8007326509759651  0.2021003181447960
  0.6013167087688325  0.7998463017355748  0.2012304492374171
  0.8013639394760023  0.7977149371435389  0.1995962924304467
  0.9982111759564938  0.0020792984239181  0.3990078747053706
  0.1992885223718891  0.0000417744343844  0.3983016517422639
  0.4025200094262381  0.9997506884532700  0.3989330682157591
  0.6004214862202756  0.0004258357946686  0.4016112881250118
  0.7990125524538739  0.0019208526744318  0.4009296587393794
  0.9982061592274962  0.2005883850816808  0.4021372272046962
  0.2015231467953807  0.1975651651066641  0.4008657314041978
  0.3986517933441156  0.1997167510769175  0.3991170098600539
  0.6012182532149956  0.2003565576705858  0.4009659785808944
  0.7977827798035957  0.2010495185681958  0.4016563902841026
  0.0013763310238832  0.4000706102241992  0.3975367150724721
  0.2021394364175788  0.4005036611745009  0.3992598954385214
  0.4025758230033961  0.3990252917293076  0.3989412804282629
  0.6017031053925672  0.3976373295614679  0.3999426731096599
  0.8013023685014503  0.4005444662694758  0.4007047707842953
  0.9981538689705310  0.6009818442022601  0.4018906163006816
  0.1991042378157473  0.5980523893414484  0.4018471498571756
  0.3976077472637330  0.6003149782519733  0.4017529134159964
  0.5985190458546430  0.5985772044080491  0.4019841089592644
  0.8003286314304046  0.5982579817324198  0.3991480814459313
  0.9990151263493945  0.8011323627418709  0.4017615894835218
  0.2004679018400025  0.8016707384520358  0.4002913432480000
  0.3992252593967580  0.8018869342876161  0.3979911869783535
  0.6001765780670829  0.7995727223449844  0.4022175769386686
  0.8012523456405666  0.7995979579120496  0.3977162890384259
  0.9975987113599114  0.9999010338542818  0.6010283374336984
  0.2016539718867818  0.9989425021440929  0.6012778633379244
  0.4024393033996913  0.9995809367219552  0.5996354416398275
  0.5991170690347449  0.9981235734368775  0.6020476717578253
  0.8023718385461981  0.9990712673823205  0.5984209622617754
  0.0020283688762334  0.2004869947773303  0.5978806254687271
  0.1976175419564203  0.2011972957008518  0.5998218439314458
  0.3992830089353952  0.2018964904788489  0.6008582900441990
  0.6013059832012141  0.2015025070073512  0.5978564741827250
  0.8023038619303828  0.1981224917629248  0.5999821360939681
  0.0015625325478809  0.3997240480444569  0.5976752374702283
  0.1974910635825663  0.4014613264281696  0.6006263227462770
  0.3976713923741314  0.3996899693280112  0.6013307531708124
  0.6024902160481901  0.3998421962865113  0.5986697079225080
  0.7974705589705796  0.4002890596221011  0.6010541672668182
  0.9984698328791610  0.6017885231600465  0.5985619294013849
  0.1983706821772176  0.6003350455160644  0.6022896186544167
  0.4024183631148044  0.5992062477645804  0.5984125181355461
  0.6003357576609815  0.6011155809429360  0.5974591786271063
  0.8011932532071584  0.6013897537194713  0.5976340736703718
  0.0011347770753924  0.7978888732872560  0.5993094476058050
  0.1979892546073301  0.8014718890384613  0.5991193711048077
  0.3977100873506448  0.8005966417639137  0.5998549864327040
  0.5979262524132800  0.8004958885536494  0.5995222713296496
  0.8012125493125679  0.8010838813088854  0.5974883095935591
  0.0022783353672949  0.9991107009228197  0.7982921644816997
  0.2008160756680352  0.9976383735073800  0.8016566241373888
  0.4024476311350333  0.9996088858011057  0.7995806341973180
  0.6018928053216118  0.0006757518434840  0.7978041555928065
  0.8018765845126071  0.0009157112712877  0.7979949820224428
  0.0003256643063833  0.2022740172783231  0.7982856619178457
  0.1980293841345455  0.2008320323528583  0.8019433749173619
  0.3980134033845457  0.1990910645276193  0.8013150687216536
  0.5985923827181194  0.1984853164166188  0.8019378191102419
  0.8006515472725013  0.2019713425105512  0.7978981376710493
  0.0022165702516104  0.3987214767912070  0.7985279239881939
  0.2014703637660459  0.3984209291527825  0.8015272175940916
  0.4005434227226204  0.4021983990053964  0.7983914545809505
  0.5982538922368387  0.4005128393747713  0.8021862882956151
  0.8019589276042911  0.4009200875427317  0.7988534748888164
  0.9983400251534816  0.6024079660286022  0.7993375276249816
  0.2021936383022331  0.5991098556314891  0.8004765361945303
  0.4020792611024654  0.5995033597499267  0.7979481981322292
  0.5993196420743832  0.6018405660389072  0.8009159554870229
  0.7982280764225448  0.6023817428778508  0.7996663857343353
  0.9979120574308230  0.7999678792890649  0.8021536791911230
  0.2024743953271436  0.7987674244584601  0.7988373027367988
  0.4010492494052313  0.8009966891486141  0.8005282808872356
  0.6025657675686669  0.7992969039894406  0.7987622983311821
  0.8017283665703299  0.8000146940758649  0.8006273697527160
