Al
 1.0000000000000000
     0.0000000000000000    2.0000000000000000    2.0000000000000000
     2.0000000000000000    0.0000000000000000    2.0000000000000000
     2.0000000000000000    2.0000000000000000    0.0000000000000000
   1
Cartesian
  0.0000000000000000  0.0000000000000000  0.0000000000000000
