generated by phonopy
   1.0
     0.0000000000000000   10.0000000000000000   10.0000000000000000
    10.0000000000000000    0.0000000000000000   10.0000000000000000
    10.0000000000000000   10.0000000000000000    0.0000000000000000
Al
 125
Direct
  0.9978105219474748  0.0015441685012258  0.0012208522174279
  0.2007940226235240  0.9974063399562906  0.0007923286432699
  0.4015381418764938  0.9978415896095441  0.9993659368095577
  0.6014679167984003  0.9986083220117872  0.0015280138063557
  0.8008162801168214  0.0014467094561638  0.9975120101680671
  0.9993976421763998  0.1985250366228390  0.9995716881393549
  0.2007860159577442  0.2020047416000038  0.9981203557163035
  0.3992313438299882  0.2005694863517118  0.9980914740208702
  0.5974112476485831  0.2010390857217692  0.0006801528143870
  0.7991830243795388  0.1988755523466029  0.9993608038528927
  0.9979837418182856  0.3998314616493882  0.0022148130346892
  0.2024628362179594  0.3996184237084079  0.9984012410836833
  0.4017885998362623  0.3983268600791998  0.0011659628009114
  0.5990375032663261  0.3988089413022232  0.0025492040666767
  0.7994877933687908  0.3984428595848364  0.9995903987059782
  0.9977757423122663  0.6012023072289086  0.9994899601228335
  0.2005884770562354  0.6017122567007579  0.0000896298623682
  0.4000197912202573  0.5996087065734289  0.9980908178324686
  0.6000906890806086  0.5980118053739452  0.0022212687789260
  0.8008200710258885  0.5985817618591680  0.0020508229986684
  0.9975984445040960  0.8015418701365747  0.0009226094721283
  0.1986107751486514  0.7990277380885986  0.9998891452970795
  0.4020772346893993  0.7978366724011271  0.0000695393837950
  0.5977648838818561  0.8010449939028114  0.0016448344731569
  0.8016924445038967  0.7997470952418497  0.0008669773415160
  0.0000024664387106  0.0022575954740142  0.1980485931650911
  0.2002050341884371  0.0023509251996505  0.1984350991578652
  0.4008540837710013  0.9980428199452315  0.1991674281254656
  0.5982876671673329  0.9987788414366651  0.2018368822593904
  0.8010443261247167  0.0018923963916159  0.1984420584056365
  0.0022057939696120  0.1979812896940533  0.1997619218134283
  0.1979628598205739  0.2020565792985267  0.2005472151487249
  0.3980609542071910  0.2017929364390072  0.2010767494431112
  0.6018659018099115  0.1986237460112765  0.1984314582380693
  0.7994923609122268  0.1999960206909744  0.2023308284789958
  0.0012490082480455  0.3974630422024844  0.2003486643372722
  0.1975041857357059  0.4013855349836672  0.2002124707573628
  0.3978737645090395  0.4020751313922674  0.1997325959712780
  0.6014461358829540  0.3975430612473804  0.2009304201128027
  0.7983790814444592  0.3999013588201893  0.2024225418636667
  0.9981630806075971  0.6022075998017585  0.1992300538262496
  0.2004008992765332  0.5991678961901974  0.2022223302433460
  0.3998284739188661  0.6020333118346333  0.2003147191596938
  0.5993682860373084  0.5979004478800408  0.2018467313461421
  0.8021602046277888  0.6003052132046316  0.1979923013026992
  0.0024518771622617  0.7990042690656159  0.1999562650221493
  0.2002632265627417  0.7975438676080508  0.2015932966838103
  0.3982072992342023  0.7994048423545100  0.2000579104018504
  0.6003548713797388  0.7986271759250708  0.2023077685143443
  0.7990093490450264  0.7983061742982287  0.2022215442242711
  0.9998006237678462  0.9988872027420085  0.4025082519302733
  0.1978707108136838  0.9998647588708104  0.4001617527613637
  0.4006212417743045  0.0015895564713699  0.4002443331544397
  0.6023573126585953  0.9995956941243896  0.3998518974901411
  0.7986174593534083  0.0024787569329534  0.3998663193864399
  0.9989275095255472  0.2024962360928845  0.3987381073012405
  0.1986041308304091  0.2000320246274777  0.3989325670016652
  0.4003398341561226  0.1983730021492469  0.3989990461147163
  0.6010937253257262  0.2003839349338203  0.4010728843837660
  0.8003875517989524  0.1977317838106740  0.4019243417599264
  0.0001083649595641  0.4020057730764699  0.4001113362163826
  0.2008013088129521  0.3987777866931230  0.4020510389091812
  0.3982379665700910  0.4009767657253459  0.3988706541832719
  0.5998924334605330  0.4011578468153090  0.3975912097004309
  0.8018076080568667  0.3990361297231395  0.3980868966412714
  0.0010197462186024  0.5974126101494253  0.4006482155249148
  0.2002811618387928  0.6021312405393288  0.3996508049856385
  0.3978470911431413  0.6007686042199253  0.3995055434226518
  0.6019093312960992  0.5994175957267922  0.3978986749510194
  0.7990807645585178  0.6021519531155169  0.3982079907983332
  0.9999546002857190  0.7989296703538415  0.4024591678269619
  0.2023393354960620  0.7986284940376294  0.3987485782856603
  0.3977631739888269  0.7998497390939179  0.4004435637653770
  0.6004985608553453  0.8021193217429597  0.3980455907411151
  0.7999033172877748  0.7997431946242113  0.3980717230776103
  0.9977773744500816  0.9997590324588956  0.6019272190249859
  0.2014192258401680  0.0006437019935488  0.6004591081435497
  0.3974402594474156  0.0012594459598801  0.6007399837134905
  0.5983947663923581  0.9992960823737004  0.6024316103325669
  0.7995041092527503  0.9983190745044622  0.5997543696347281
  0.0008225476396355  0.2005050080809876  0.5974405454632761
  0.1979384563711669  0.1992865970433950  0.6018295874249903
  0.4001468923122795  0.2023585351091418  0.5983750286462958
  0.5978663944211970  0.1993138385635913  0.6013837424742707
  0.7988504787476941  0.2023123260738302  0.6003284578785961
  0.0011703771741111  0.3991374020020260  0.6016952694036869
  0.1984252866897131  0.4013202546792997  0.6016674940613654
  0.3974680932985620  0.4012768760482109  0.6009203335658405
  0.5999276325894211  0.4015816698977107  0.6008815159688140
  0.8007362406168221  0.3989285251633478  0.5982631880041868
  0.0001363375389836  0.6023023416073260  0.5993752431415778
  0.2022660280019684  0.5980788156928581  0.5995880897756717
  0.4021255346578962  0.5984326756624705  0.6006877964527506
  0.5992390574859051  0.5994071168593895  0.5987857446539543
  0.7981656852509360  0.6015419815763591  0.5988783233630786
  0.9985441926433420  0.8018485488539969  0.6011048535081021
  0.1990598418692412  0.7994408943721877  0.5989221188591906
  0.3975132291936380  0.8005977728854361  0.6003637744296262
  0.6024919799026953  0.7985030626474279  0.5993379188744868
  0.8019953349743750  0.7983027146784634  0.6008740695190725
  0.9979834585026504  0.0015290022696541  0.8013566184804035
  0.2013715302964211  0.9987237483148751  0.8016084928260567
  0.4022180324109156  0.9986698610124289  0.7985770524884654
  0.6015223552143760  0.9979726670983938  0.8013581232033897
  0.7996668916504527  0.9988005119491855  0.8025377159064568
  0.0015613809324946  0.1992047251234208  0.7979382319560451
  0.1976704095096281  0.2002097636673954  0.8002592341775551
  0.3988748525662217  0.2018637827725371  0.7982186685298339
  0.5993069521209682  0.1979085177587099  0.8010258072343156
  0.7988753104087677  0.2023618830985230  0.8002154469097934
  0.9985402772601956  0.4023309933561763  0.7988376862027684
  0.2011450960653963  0.3992136201250044  0.7979490085218173
  0.3997094899785884  0.4022917034149305  0.7980880000208449
  0.6024464700112351  0.3995834874919744  0.7996098964688869
  0.8009835771228406  0.4009285226653606  0.8006783244362347
  0.9992094306806909  0.5980350970444928  0.8007786356457690
  0.2002411784653750  0.5978000600617244  0.8020243027340079
  0.3980440175105084  0.5996334994153941  0.8022435645035315
  0.5979112109353195  0.6021528694355130  0.7999734502581840
  0.8024221690314948  0.5983515593799186  0.7998543959004233
  0.0002298072570236  0.7975113174592044  0.8014475485203082
  0.1995127150146020  0.8009719741002655  0.7977954681525272
  0.3995686139640552  0.7982024520863692  0.7998697472652935
  0.5976354755908763  0.8014754184105762  0.8010914340138594
  0.7976204247685560  0.8002839007189322  0.8003194499044670
