 &control
    calculation = 'scf'
    pseudo_dir = '/home/togo/espresso/pseudo/'
 /
 &system
    ibrav = 0
    nat = 8
    ntyp = 1
    occupations = 'smearing'
    smearing = 'gaussian'
    degauss = 0.01
    ecutwfc = 36.0
 /
 &electrons
    diagonalization = 'david'
    conv_thr = 1.0d-8
 /
ATOMIC_SPECIES
 Si  28.086  Si.pbe-n-kjpaw_psl.0.1.UPF
ATOMIC_POSITIONS crystal
 Si   0.8750000000000000  0.8750000000000000  0.8750000000000000
 Si   0.8750000000000000  0.3750000000000000  0.3750000000000000
 Si   0.3750000000000000  0.8750000000000000  0.3750000000000000
 Si   0.3750000000000000  0.3750000000000000  0.8750000000000000
 Si   0.1250000000000000  0.1250000000000000  0.1250000000000000
 Si   0.1250000000000000  0.6250000000000000  0.6250000000000000
 Si   0.6250000000000000  0.1250000000000000  0.6250000000000000
 Si   0.6250000000000000  0.6250000000000000  0.1250000000000000
CELL_PARAMETERS angstrom
 5.4661639157319968 0 0
 0 5.4661639157319968 0
 0 0 5.4661639157319968
K_POINTS automatic
 4 4 4  1 1 1
