 Sn O
   1.0
     4.8305952252843758    0.0000000000000000    0.0000000000000000
     0.0000000000000000    4.8305952252843758    0.0000000000000000
     0.0000000000000000    0.0000000000000000    3.2430828755363028
   2   4
Direct
   0.0000000000000000  0.0000000000000000  0.0000000000000000
   0.5000000000000000  0.5000000000000000  0.5000000000000000
   0.3065372364588790  0.3065372364588790  0.0000000000000000
   0.6934627635411208  0.6934627635411208  0.0000000000000000
   0.1934627635411210  0.8065372364588792  0.5000000000000000
   0.8065372364588792  0.1934627635411210  0.5000000000000000
