ATOMIC_SPECIES
Al	26.9815386	Al.PD04.PBE.UPF

LATTICE_CONSTANT
1.0

LATTICE_VECTORS
15.285374794956 0.0 0.0
0.0 15.285374794956 0.0
0.0 0.0 15.285374794956

ATOMIC_POSITIONS
Direct

Al
0.0
32
0.0013084402749875504 0.0 0.0 1 1 1
0.5 0.0 0.0 1 1 1
0.0 0.5 0.0 1 1 1
0.5 0.5 0.0 1 1 1
0.0 0.0 0.5 1 1 1
0.5 0.0 0.5 1 1 1
0.0 0.5 0.5 1 1 1
0.5 0.5 0.5 1 1 1
0.0 0.25 0.25 1 1 1
0.5 0.25 0.25 1 1 1
0.0 0.7500000000000001 0.25 1 1 1
0.5 0.7500000000000001 0.25 1 1 1
0.0 0.25 0.7500000000000001 1 1 1
0.5 0.25 0.7500000000000001 1 1 1
0.0 0.7500000000000001 0.7500000000000001 1 1 1
0.5 0.7500000000000001 0.7500000000000001 1 1 1
0.25 0.0 0.25 1 1 1
0.7500000000000001 0.0 0.25 1 1 1
0.25 0.5 0.25 1 1 1
0.7500000000000001 0.5 0.25 1 1 1
0.25 0.0 0.7500000000000001 1 1 1
0.7500000000000001 0.0 0.7500000000000001 1 1 1
0.25 0.5 0.7500000000000001 1 1 1
0.7500000000000001 0.5 0.7500000000000001 1 1 1
0.25 0.25 0.0 1 1 1
0.7500000000000001 0.25 0.0 1 1 1
0.25 0.7500000000000001 0.0 1 1 1
0.7500000000000001 0.7500000000000001 0.0 1 1 1
0.25 0.25 0.5 1 1 1
0.7500000000000001 0.25 0.5 1 1 1
0.25 0.7500000000000001 0.5 1 1 1
0.7500000000000001 0.7500000000000001 0.5 1 1 1
